n = 20;
m = 15;

d = [| 18, 64, 10, 47, 55, 55, 71, 35, 37, 37, 45, 54, 77, 39, 22 |
     32, 33, 46, 68, 86, 94, 80, 44, 93, 62, 74, 32, 13, 23, 85 |
     39, 71, 28, 90, 52, 42, 37, 62, 63, 99, 84, 7, 96, 6, 13 |
     17, 56, 43, 14, 94, 53, 69, 49, 46, 24, 5, 91, 38, 27, 73 |
     65, 95, 45, 98, 61, 84, 71, 68, 48, 15, 53, 38, 76, 95, 87 |
     98, 79, 76, 24, 2, 86, 5, 93, 82, 17, 7, 2, 14, 4, 78 |
     89, 20, 45, 20, 25, 73, 38, 41, 73, 67, 7, 6, 96, 15, 7 |
     57, 60, 94, 69, 3, 84, 51, 48, 80, 89, 47, 11, 11, 63, 19 |
     9, 3, 22, 80, 64, 5, 13, 80, 67, 41, 95, 66, 66, 93, 67 |
     65, 25, 41, 97, 11, 37, 48, 57, 52, 5, 8, 49, 20, 47, 19 |
     68, 96, 31, 55, 42, 17, 21, 86, 57, 71, 16, 18, 96, 55, 39 |
     62, 72, 41, 63, 55, 62, 58, 43, 22, 9, 75, 58, 28, 23, 5 |
     39, 86, 20, 24, 16, 78, 32, 99, 30, 22, 60, 77, 16, 86, 75 |
     66, 70, 14, 34, 68, 69, 80, 33, 7, 23, 9, 20, 74, 46, 23 |
     15, 82, 74, 74, 99, 87, 47, 81, 82, 15, 49, 81, 62, 88, 77 |
     88, 35, 99, 92, 70, 69, 79, 76, 74, 85, 5, 44, 96, 83, 48 |
     68, 33, 74, 95, 24, 96, 16, 24, 55, 25, 52, 81, 71, 89, 41 |
     90, 86, 38, 9, 8, 2, 40, 40, 81, 82, 35, 36, 32, 31, 1 |
     7, 55, 50, 49, 97, 94, 76, 60, 92, 90, 98, 12, 35, 86, 52 |
     57, 89, 21, 94, 34, 85, 29, 5, 32, 39, 91, 87, 98, 82, 89 |];

mc = [| 3, 4, 1, 9, 15, 7, 8, 12, 2, 10, 6, 14, 11, 13, 5 |
      6, 15, 14, 2, 1, 12, 4, 10, 11, 3, 5, 7, 13, 9, 8 |
      13, 11, 1, 4, 8, 5, 3, 9, 14, 2, 12, 15, 7, 6, 10 |
      8, 6, 12, 7, 5, 3, 15, 9, 1, 4, 13, 11, 10, 14, 2 |
      2, 9, 3, 15, 7, 5, 11, 6, 4, 1, 14, 12, 10, 13, 8 |
      6, 5, 12, 7, 14, 4, 10, 9, 11, 1, 3, 8, 13, 2, 15 |
      13, 11, 8, 4, 14, 5, 3, 1, 12, 7, 10, 9, 15, 2, 6 |
      1, 3, 11, 5, 6, 12, 10, 4, 7, 8, 9, 2, 13, 15, 14 |
      4, 10, 14, 6, 3, 2, 7, 15, 5, 8, 12, 9, 11, 13, 1 |
      12, 5, 10, 14, 11, 2, 3, 7, 15, 13, 4, 6, 9, 1, 8 |
      6, 9, 7, 11, 10, 14, 5, 1, 2, 12, 3, 15, 4, 13, 8 |
      9, 14, 7, 12, 11, 3, 5, 15, 8, 4, 13, 6, 2, 10, 1 |
      8, 1, 15, 6, 2, 9, 14, 3, 12, 11, 10, 13, 7, 5, 4 |
      9, 3, 11, 10, 8, 6, 12, 13, 5, 15, 14, 7, 1, 2, 4 |
      9, 12, 3, 13, 2, 7, 1, 4, 8, 6, 5, 11, 15, 10, 14 |
      8, 13, 4, 12, 15, 6, 1, 7, 2, 14, 5, 3, 10, 11, 9 |
      5, 12, 15, 1, 3, 2, 10, 11, 8, 7, 9, 14, 4, 13, 6 |
      2, 4, 5, 14, 15, 6, 12, 1, 8, 3, 11, 13, 10, 7, 9 |
      6, 5, 7, 15, 3, 1, 10, 4, 13, 11, 12, 14, 9, 2, 8 |
      2, 4, 12, 13, 9, 11, 5, 8, 7, 6, 1, 3, 14, 10, 15 |];
