n = 100;
m = 20;

d = [| 78, 91, 4, 53, 41, 79, 20, 38, 30, 10, 38, 29, 52, 31, 14, 36, 93, 16, 18, 48 |
     65, 68, 96, 65, 6, 44, 15, 11, 32, 11, 62, 91, 49, 69, 39, 80, 35, 90, 58, 32 |
     67, 4, 71, 84, 6, 87, 54, 60, 63, 28, 90, 46, 31, 86, 70, 87, 63, 90, 14, 93 |
     51, 97, 64, 58, 66, 97, 40, 86, 38, 12, 84, 62, 62, 51, 3, 99, 3, 62, 43, 71 |
     82, 4, 49, 37, 5, 68, 7, 42, 30, 97, 6, 74, 27, 54, 30, 55, 12, 14, 61, 94 |
     50, 31, 38, 92, 48, 20, 30, 60, 30, 37, 54, 2, 5, 72, 6, 83, 5, 28, 46, 21 |
     82, 47, 82, 33, 12, 62, 78, 90, 96, 55, 6, 67, 6, 8, 98, 71, 6, 77, 39, 92 |
     78, 45, 97, 49, 72, 1, 94, 82, 13, 29, 9, 23, 63, 52, 26, 72, 21, 17, 15, 26 |
     96, 31, 25, 12, 81, 1, 76, 22, 93, 22, 78, 69, 71, 47, 8, 16, 91, 65, 53, 84 |
     37, 42, 99, 90, 79, 23, 97, 98, 57, 69, 62, 38, 80, 86, 62, 26, 99, 15, 50, 46 |
     84, 68, 84, 9, 24, 54, 97, 50, 57, 16, 46, 54, 96, 99, 11, 22, 89, 46, 17, 28 |
     82, 45, 83, 41, 28, 52, 87, 58, 57, 30, 76, 49, 50, 99, 2, 92, 22, 59, 83, 80 |
     49, 57, 63, 87, 59, 73, 42, 52, 96, 8, 64, 91, 24, 22, 75, 1, 31, 92, 38, 7 |
     34, 75, 52, 64, 67, 25, 9, 2, 2, 94, 29, 59, 5, 62, 96, 36, 72, 58, 49, 13 |
     27, 1, 7, 61, 58, 48, 11, 92, 63, 86, 84, 87, 39, 82, 29, 72, 41, 80, 55, 5 |
     67, 40, 8, 84, 69, 14, 66, 63, 85, 60, 82, 67, 86, 46, 88, 7, 23, 4, 70, 27 |
     86, 24, 14, 85, 24, 44, 56, 78, 22, 86, 59, 50, 83, 59, 63, 45, 14, 86, 55, 19 |
     61, 87, 65, 85, 12, 28, 44, 95, 5, 27, 85, 78, 91, 62, 19, 76, 23, 19, 16, 44 |
     19, 74, 54, 32, 3, 34, 85, 92, 70, 13, 70, 99, 15, 69, 35, 65, 40, 71, 2, 73 |
     4, 64, 5, 48, 8, 84, 38, 66, 62, 76, 48, 87, 24, 10, 48, 55, 96, 98, 1, 15 |
     32, 24, 65, 47, 3, 77, 53, 16, 84, 28, 68, 10, 39, 2, 68, 23, 75, 57, 68, 56 |
     9, 16, 47, 60, 63, 13, 2, 70, 19, 17, 49, 67, 26, 10, 33, 44, 59, 56, 95, 91 |
     82, 31, 16, 72, 4, 70, 19, 85, 66, 73, 78, 89, 92, 29, 55, 81, 26, 33, 97, 44 |
     98, 81, 97, 27, 70, 37, 79, 32, 13, 48, 98, 62, 82, 33, 51, 77, 50, 66, 61, 64 |
     86, 33, 33, 43, 21, 61, 50, 61, 23, 3, 7, 38, 14, 27, 12, 84, 27, 83, 89, 27 |
     86, 26, 78, 15, 7, 6, 44, 93, 99, 72, 58, 66, 57, 65, 74, 83, 72, 48, 93, 61 |
     37, 74, 39, 52, 71, 39, 42, 72, 45, 12, 82, 60, 46, 78, 63, 26, 73, 23, 61, 28 |
     69, 67, 29, 16, 16, 50, 87, 44, 58, 55, 84, 85, 8, 37, 10, 73, 51, 19, 45, 94 |
     91, 26, 2, 14, 97, 64, 1, 55, 3, 61, 8, 38, 77, 61, 28, 22, 92, 75, 3, 61 |
     37, 3, 56, 13, 40, 53, 51, 58, 57, 66, 3, 89, 14, 28, 74, 51, 26, 75, 46, 81 |
     79, 44, 54, 96, 78, 49, 34, 83, 85, 40, 54, 32, 39, 83, 28, 45, 60, 93, 92, 23 |
     78, 27, 46, 46, 41, 94, 59, 99, 58, 20, 27, 66, 77, 60, 18, 68, 82, 84, 42, 80 |
     50, 1, 39, 50, 78, 9, 12, 35, 44, 4, 18, 63, 75, 73, 15, 23, 84, 42, 83, 10 |
     28, 98, 12, 63, 22, 70, 46, 95, 26, 6, 55, 30, 18, 60, 99, 7, 86, 87, 39, 28 |
     37, 93, 89, 51, 27, 84, 39, 57, 84, 95, 25, 7, 7, 46, 71, 13, 14, 24, 61, 43 |
     56, 39, 56, 6, 64, 31, 44, 96, 30, 1, 87, 84, 92, 64, 77, 70, 38, 31, 9, 99 |
     31, 61, 51, 54, 84, 67, 30, 85, 47, 45, 31, 73, 50, 22, 2, 5, 27, 37, 70, 45 |
     60, 4, 82, 1, 33, 85, 24, 91, 71, 94, 28, 28, 98, 31, 54, 95, 90, 55, 83, 9 |
     78, 3, 16, 84, 42, 24, 58, 39, 26, 12, 92, 81, 85, 17, 94, 54, 72, 56, 71, 9 |
     75, 92, 98, 47, 31, 2, 36, 46, 17, 11, 86, 32, 20, 45, 57, 34, 27, 48, 72, 20 |
     14, 56, 43, 26, 91, 81, 40, 92, 79, 82, 78, 84, 23, 83, 65, 16, 38, 1, 71, 29 |
     99, 7, 1, 43, 20, 49, 35, 47, 26, 11, 84, 32, 70, 89, 88, 49, 15, 26, 14, 55 |
     26, 77, 63, 88, 11, 79, 4, 91, 54, 19, 58, 87, 81, 5, 1, 77, 37, 48, 31, 39 |
     66, 92, 95, 16, 86, 23, 54, 66, 47, 29, 69, 69, 62, 51, 33, 4, 12, 74, 60, 85 |
     23, 90, 36, 79, 29, 5, 46, 1, 70, 96, 20, 29, 34, 61, 87, 17, 31, 74, 44, 77 |
     26, 23, 12, 36, 34, 90, 29, 23, 99, 89, 22, 88, 51, 8, 25, 79, 37, 34, 18, 72 |
     82, 92, 18, 3, 19, 72, 52, 17, 88, 9, 25, 54, 20, 46, 81, 92, 71, 14, 1, 23 |
     53, 14, 2, 8, 26, 1, 76, 93, 21, 22, 32, 15, 92, 30, 41, 30, 4, 81, 72, 25 |
     48, 20, 47, 26, 50, 36, 92, 42, 50, 74, 98, 12, 11, 16, 35, 41, 30, 30, 19, 47 |
     36, 91, 58, 14, 13, 95, 63, 85, 65, 14, 89, 13, 26, 19, 65, 53, 70, 54, 68, 61 |
     9, 20, 32, 66, 67, 62, 35, 25, 56, 82, 55, 4, 64, 83, 85, 22, 12, 44, 6, 25 |
     45, 48, 22, 43, 18, 48, 95, 16, 63, 42, 30, 32, 82, 24, 44, 34, 36, 77, 54, 8 |
     66, 43, 47, 99, 21, 75, 98, 32, 44, 22, 11, 18, 77, 20, 53, 95, 82, 80, 65, 1 |
     32, 19, 90, 68, 34, 90, 49, 22, 25, 9, 80, 21, 13, 39, 34, 46, 47, 24, 58, 43 |
     50, 65, 31, 47, 49, 59, 89, 43, 19, 91, 92, 80, 62, 9, 90, 55, 69, 97, 67, 94 |
     91, 18, 61, 1, 77, 1, 6, 88, 19, 96, 98, 13, 31, 5, 11, 29, 12, 37, 49, 77 |
     74, 27, 72, 59, 37, 92, 90, 3, 75, 98, 92, 47, 22, 39, 93, 77, 11, 55, 43, 98 |
     53, 80, 9, 75, 32, 7, 74, 95, 23, 30, 28, 43, 14, 68, 27, 34, 41, 10, 76, 81 |
     99, 63, 31, 92, 70, 46, 49, 78, 73, 83, 30, 18, 45, 29, 74, 19, 39, 15, 5, 5 |
     13, 93, 35, 8, 27, 6, 22, 93, 33, 63, 41, 35, 54, 47, 85, 4, 58, 81, 83, 43 |
     90, 18, 93, 1, 30, 39, 73, 90, 61, 54, 95, 94, 29, 10, 13, 56, 68, 20, 88, 94 |
     26, 13, 69, 35, 51, 72, 27, 42, 1, 5, 23, 85, 50, 59, 58, 41, 63, 33, 41, 39 |
     63, 41, 36, 57, 61, 62, 32, 29, 93, 83, 23, 3, 8, 21, 11, 76, 31, 89, 74, 58 |
     48, 88, 6, 20, 61, 6, 45, 50, 21, 54, 41, 92, 23, 40, 91, 8, 90, 10, 98, 13 |
     9, 94, 32, 27, 47, 68, 41, 37, 95, 43, 14, 69, 73, 26, 21, 95, 40, 12, 48, 65 |
     70, 18, 55, 38, 91, 50, 67, 11, 13, 27, 11, 35, 69, 31, 87, 1, 13, 21, 71, 5 |
     77, 28, 22, 84, 94, 58, 73, 34, 65, 90, 67, 44, 51, 93, 13, 3, 2, 20, 45, 48 |
     77, 20, 85, 95, 15, 10, 29, 34, 25, 48, 88, 91, 73, 57, 54, 69, 57, 14, 94, 69 |
     28, 3, 34, 7, 52, 98, 81, 91, 57, 60, 35, 84, 62, 33, 12, 15, 55, 68, 29, 89 |
     47, 84, 19, 58, 66, 99, 20, 52, 86, 99, 53, 84, 61, 1, 11, 4, 92, 48, 28, 1 |
     39, 42, 92, 36, 96, 40, 13, 2, 29, 81, 28, 37, 60, 82, 83, 94, 59, 78, 30, 96 |
     21, 23, 4, 96, 96, 85, 8, 83, 89, 38, 13, 78, 64, 8, 60, 38, 37, 7, 22, 23 |
     75, 93, 29, 56, 32, 94, 68, 14, 1, 89, 35, 45, 79, 46, 35, 87, 7, 55, 85, 25 |
     27, 97, 15, 78, 71, 58, 21, 15, 40, 26, 1, 7, 6, 21, 71, 82, 64, 25, 87, 57 |
     70, 91, 44, 36, 93, 67, 95, 19, 8, 25, 78, 19, 20, 58, 8, 20, 60, 47, 96, 69 |
     82, 46, 57, 3, 26, 63, 62, 55, 42, 37, 39, 77, 90, 82, 91, 35, 35, 52, 17, 29 |
     74, 20, 7, 77, 50, 23, 70, 48, 74, 6, 83, 90, 11, 55, 39, 40, 32, 42, 8, 84 |
     24, 96, 79, 26, 49, 61, 69, 54, 47, 4, 41, 50, 34, 69, 16, 42, 19, 69, 7, 8 |
     26, 51, 76, 82, 43, 73, 34, 92, 13, 88, 18, 61, 54, 22, 55, 43, 91, 73, 7, 21 |
     36, 21, 93, 52, 95, 62, 72, 94, 13, 86, 38, 4, 47, 58, 30, 54, 24, 76, 78, 90 |
     96, 84, 87, 82, 72, 40, 81, 80, 78, 75, 6, 91, 49, 1, 12, 66, 40, 43, 57, 90 |
     99, 74, 80, 31, 3, 60, 31, 79, 27, 31, 58, 33, 44, 12, 60, 3, 7, 86, 60, 96 |
     72, 91, 46, 81, 98, 55, 86, 84, 47, 3, 67, 26, 68, 6, 38, 39, 96, 26, 89, 85 |
     15, 20, 72, 40, 48, 53, 7, 29, 7, 29, 86, 65, 93, 87, 1, 14, 3, 13, 1, 91 |
     61, 2, 6, 34, 62, 38, 29, 55, 94, 31, 29, 39, 84, 81, 84, 22, 88, 1, 11, 23 |
     91, 51, 89, 86, 69, 74, 28, 23, 77, 84, 94, 93, 24, 20, 15, 69, 71, 55, 80, 49 |
     88, 54, 19, 83, 6, 19, 51, 50, 58, 41, 22, 58, 19, 49, 82, 6, 56, 24, 7, 66 |
     34, 62, 9, 71, 86, 58, 44, 5, 48, 87, 36, 59, 17, 15, 22, 4, 16, 83, 20, 58 |
     70, 86, 48, 2, 6, 43, 63, 19, 94, 59, 99, 52, 68, 85, 43, 44, 44, 74, 94, 52 |
     38, 29, 99, 54, 26, 12, 93, 64, 41, 47, 47, 77, 30, 3, 20, 17, 63, 28, 36, 55 |
     25, 76, 87, 29, 66, 28, 48, 83, 48, 56, 22, 41, 20, 73, 43, 15, 11, 24, 28, 72 |
     38, 95, 66, 50, 30, 98, 63, 99, 34, 15, 51, 31, 69, 58, 54, 26, 77, 19, 11, 30 |
     76, 45, 92, 53, 42, 49, 90, 90, 2, 81, 13, 12, 39, 63, 45, 74, 44, 39, 38, 60 |
     92, 13, 18, 38, 9, 63, 75, 10, 85, 51, 7, 49, 22, 19, 32, 6, 50, 27, 54, 24 |
     40, 77, 57, 39, 3, 20, 33, 39, 76, 96, 91, 75, 59, 93, 5, 59, 86, 90, 23, 4 |
     10, 87, 53, 27, 73, 5, 33, 16, 46, 30, 70, 92, 29, 39, 71, 47, 68, 36, 92, 86 |
     56, 52, 75, 82, 89, 79, 8, 53, 99, 52, 65, 65, 11, 92, 5, 78, 96, 58, 41, 73 |
     97, 80, 69, 63, 97, 26, 58, 36, 49, 13, 1, 29, 82, 45, 99, 30, 71, 47, 85, 53 |
     77, 14, 58, 58, 28, 73, 75, 39, 49, 41, 47, 65, 63, 8, 45, 78, 19, 37, 74, 45 |
     86, 80, 22, 68, 17, 72, 40, 14, 43, 87, 4, 35, 83, 46, 84, 43, 58, 63, 38, 94 |];

mc = [| 12, 11, 3, 18, 14, 13, 4, 20, 9, 19, 7, 1, 6, 17, 8, 10, 2, 16, 5, 15 |
      16, 18, 19, 8, 11, 9, 3, 2, 1, 4, 15, 17, 10, 12, 6, 13, 14, 5, 7, 20 |
      9, 5, 6, 17, 18, 4, 14, 19, 12, 1, 20, 11, 2, 15, 13, 7, 16, 3, 10, 8 |
      6, 9, 3, 1, 12, 10, 4, 8, 11, 14, 5, 19, 16, 18, 7, 20, 15, 17, 13, 2 |
      5, 17, 20, 15, 9, 3, 4, 10, 16, 7, 1, 6, 18, 8, 14, 11, 13, 19, 12, 2 |
      12, 10, 18, 5, 17, 2, 14, 1, 11, 15, 4, 8, 9, 20, 6, 7, 19, 13, 3, 16 |
      4, 3, 7, 6, 13, 14, 5, 11, 2, 17, 9, 20, 19, 12, 10, 18, 15, 16, 8, 1 |
      5, 3, 15, 16, 10, 9, 20, 7, 12, 11, 1, 14, 18, 19, 4, 8, 2, 6, 13, 17 |
      11, 8, 9, 4, 18, 7, 2, 16, 10, 6, 12, 3, 20, 5, 15, 17, 13, 1, 14, 19 |
      19, 11, 4, 9, 13, 10, 6, 18, 5, 1, 15, 12, 17, 16, 20, 2, 3, 14, 7, 8 |
      1, 13, 6, 10, 19, 4, 16, 11, 12, 8, 9, 17, 20, 18, 15, 3, 5, 14, 2, 7 |
      15, 6, 10, 18, 19, 11, 2, 9, 3, 7, 13, 8, 12, 14, 20, 1, 4, 17, 5, 16 |
      13, 10, 18, 17, 3, 11, 7, 14, 2, 5, 9, 6, 20, 8, 19, 4, 16, 1, 12, 15 |
      8, 19, 15, 10, 7, 1, 4, 20, 18, 17, 6, 14, 2, 16, 12, 3, 13, 11, 5, 9 |
      20, 17, 6, 4, 18, 11, 10, 7, 1, 2, 9, 14, 12, 3, 13, 8, 16, 5, 19, 15 |
      12, 15, 13, 8, 6, 17, 4, 9, 18, 2, 19, 5, 3, 10, 16, 1, 20, 11, 7, 14 |
      10, 16, 1, 17, 11, 3, 9, 13, 6, 5, 20, 18, 7, 12, 2, 19, 4, 14, 15, 8 |
      3, 17, 12, 4, 13, 9, 6, 15, 7, 10, 2, 14, 8, 11, 1, 20, 19, 16, 5, 18 |
      19, 10, 6, 15, 1, 3, 13, 11, 17, 14, 18, 8, 2, 20, 7, 12, 5, 9, 16, 4 |
      2, 13, 3, 6, 20, 18, 10, 9, 8, 17, 5, 7, 15, 16, 14, 1, 12, 19, 11, 4 |
      5, 1, 20, 10, 7, 13, 19, 18, 15, 16, 3, 4, 2, 9, 8, 14, 11, 6, 17, 12 |
      16, 10, 4, 12, 6, 3, 8, 18, 14, 15, 13, 5, 17, 20, 11, 1, 2, 9, 7, 19 |
      1, 15, 19, 12, 8, 7, 10, 6, 4, 18, 20, 9, 14, 5, 2, 17, 3, 13, 16, 11 |
      14, 10, 12, 5, 4, 16, 1, 3, 7, 20, 2, 17, 19, 6, 8, 13, 15, 11, 9, 18 |
      13, 14, 11, 5, 3, 7, 18, 9, 16, 8, 10, 2, 1, 12, 4, 15, 17, 6, 19, 20 |
      6, 15, 7, 3, 20, 18, 11, 9, 19, 17, 13, 1, 8, 5, 16, 2, 10, 12, 4, 14 |
      19, 9, 8, 11, 5, 20, 2, 1, 3, 13, 16, 15, 4, 7, 18, 6, 12, 10, 17, 14 |
      10, 7, 3, 5, 13, 20, 18, 4, 15, 1, 8, 17, 9, 6, 14, 2, 19, 16, 12, 11 |
      17, 6, 3, 20, 5, 11, 9, 1, 18, 13, 16, 19, 8, 14, 7, 4, 10, 2, 12, 15 |
      19, 11, 5, 10, 3, 15, 20, 14, 7, 9, 12, 17, 16, 4, 8, 6, 18, 2, 1, 13 |
      15, 9, 17, 6, 13, 8, 14, 2, 10, 20, 4, 3, 11, 18, 12, 16, 5, 19, 1, 7 |
      3, 2, 10, 20, 15, 9, 13, 12, 18, 5, 14, 11, 8, 19, 7, 6, 4, 16, 1, 17 |
      7, 1, 6, 15, 3, 11, 18, 13, 19, 20, 12, 4, 10, 9, 14, 17, 5, 16, 8, 2 |
      6, 20, 7, 17, 13, 3, 9, 10, 14, 12, 19, 4, 18, 11, 1, 8, 5, 2, 15, 16 |
      3, 15, 11, 18, 5, 20, 16, 14, 17, 12, 13, 9, 7, 19, 8, 1, 6, 2, 4, 10 |
      18, 8, 2, 6, 11, 12, 3, 20, 13, 4, 17, 19, 1, 5, 10, 15, 14, 7, 9, 16 |
      13, 2, 1, 10, 20, 3, 17, 5, 9, 7, 16, 18, 19, 15, 6, 8, 12, 11, 14, 4 |
      9, 6, 13, 1, 19, 2, 10, 14, 12, 7, 16, 8, 18, 20, 5, 3, 11, 15, 4, 17 |
      3, 17, 1, 11, 10, 19, 20, 6, 8, 13, 4, 18, 14, 5, 7, 12, 2, 9, 16, 15 |
      16, 1, 8, 14, 2, 17, 7, 3, 9, 5, 10, 18, 11, 6, 13, 12, 4, 20, 19, 15 |
      1, 16, 15, 4, 7, 18, 12, 10, 11, 3, 19, 2, 20, 8, 13, 17, 9, 5, 14, 6 |
      14, 8, 12, 9, 17, 2, 13, 19, 20, 18, 5, 6, 16, 15, 3, 1, 4, 7, 11, 10 |
      16, 12, 9, 6, 20, 5, 17, 13, 8, 4, 2, 3, 11, 15, 19, 1, 7, 10, 14, 18 |
      20, 6, 17, 18, 16, 11, 13, 2, 3, 9, 19, 8, 15, 14, 5, 4, 1, 10, 12, 7 |
      2, 16, 1, 10, 19, 7, 8, 4, 13, 18, 17, 15, 5, 20, 12, 3, 6, 9, 14, 11 |
      17, 6, 15, 16, 12, 19, 8, 2, 20, 9, 10, 18, 4, 5, 13, 1, 3, 7, 11, 14 |
      10, 19, 16, 9, 13, 6, 2, 5, 7, 20, 8, 18, 4, 1, 12, 15, 3, 14, 11, 17 |
      2, 16, 5, 3, 9, 12, 7, 18, 19, 6, 4, 11, 15, 14, 8, 20, 10, 13, 17, 1 |
      6, 15, 11, 7, 20, 5, 10, 4, 13, 12, 9, 8, 2, 16, 14, 3, 1, 17, 19, 18 |
      4, 10, 13, 15, 6, 1, 3, 20, 8, 11, 12, 2, 17, 14, 9, 19, 7, 5, 18, 16 |
      13, 1, 6, 9, 8, 5, 7, 4, 17, 3, 16, 20, 18, 11, 2, 10, 12, 14, 15, 19 |
      16, 8, 7, 13, 20, 5, 14, 2, 1, 10, 3, 15, 4, 17, 6, 11, 9, 19, 12, 18 |
      4, 9, 14, 17, 20, 1, 15, 8, 11, 6, 16, 12, 18, 19, 5, 10, 2, 7, 13, 3 |
      20, 16, 4, 7, 8, 18, 11, 12, 14, 1, 2, 9, 13, 5, 19, 6, 10, 17, 15, 3 |
      16, 1, 9, 18, 13, 19, 17, 2, 15, 12, 5, 20, 6, 8, 11, 4, 14, 10, 7, 3 |
      5, 18, 7, 17, 20, 16, 3, 9, 14, 1, 11, 10, 19, 13, 6, 15, 4, 8, 12, 2 |
      14, 8, 5, 17, 9, 4, 10, 18, 2, 13, 3, 12, 7, 11, 19, 15, 16, 6, 1, 20 |
      16, 14, 20, 7, 10, 13, 9, 8, 5, 19, 1, 15, 17, 4, 18, 2, 12, 6, 11, 3 |
      13, 19, 3, 18, 4, 1, 20, 17, 2, 14, 5, 6, 7, 16, 15, 11, 10, 12, 8, 9 |
      10, 15, 1, 8, 13, 11, 7, 17, 4, 6, 19, 20, 12, 5, 16, 3, 2, 18, 14, 9 |
      13, 2, 3, 7, 16, 20, 15, 17, 10, 19, 12, 18, 5, 14, 1, 11, 6, 8, 9, 4 |
      5, 9, 18, 17, 19, 11, 1, 10, 3, 12, 6, 20, 13, 14, 4, 8, 2, 7, 15, 16 |
      11, 7, 3, 6, 12, 5, 17, 4, 9, 18, 2, 16, 10, 1, 8, 13, 15, 19, 20, 14 |
      7, 3, 18, 12, 13, 1, 15, 16, 4, 6, 9, 5, 17, 20, 14, 8, 10, 19, 2, 11 |
      5, 17, 1, 11, 9, 14, 18, 2, 3, 8, 13, 10, 19, 16, 7, 15, 6, 12, 4, 20 |
      8, 9, 6, 12, 19, 10, 4, 20, 15, 2, 3, 7, 16, 14, 1, 13, 17, 11, 5, 18 |
      9, 19, 16, 14, 10, 7, 20, 12, 2, 6, 17, 15, 4, 18, 5, 11, 13, 8, 3, 1 |
      17, 11, 1, 14, 10, 6, 2, 9, 7, 18, 19, 20, 5, 15, 3, 16, 8, 4, 13, 12 |
      15, 12, 2, 10, 18, 11, 16, 4, 3, 7, 8, 5, 19, 17, 13, 14, 9, 20, 1, 6 |
      16, 14, 9, 5, 3, 12, 2, 18, 13, 19, 7, 10, 6, 4, 1, 17, 8, 11, 20, 15 |
      11, 12, 4, 13, 3, 7, 19, 8, 14, 15, 2, 10, 1, 18, 9, 16, 5, 6, 17, 20 |
      20, 16, 7, 13, 9, 10, 12, 6, 18, 8, 17, 2, 3, 11, 5, 4, 14, 1, 15, 19 |
      14, 2, 19, 9, 11, 6, 1, 10, 17, 16, 8, 5, 18, 7, 12, 13, 15, 20, 4, 3 |
      16, 10, 8, 2, 20, 17, 11, 1, 18, 14, 3, 13, 4, 19, 6, 9, 15, 7, 12, 5 |
      1, 8, 18, 13, 4, 19, 3, 9, 10, 12, 5, 14, 17, 16, 7, 6, 2, 11, 15, 20 |
      5, 11, 10, 20, 17, 14, 4, 3, 16, 19, 2, 15, 8, 13, 9, 7, 18, 6, 1, 12 |
      5, 3, 10, 6, 7, 13, 12, 15, 14, 2, 8, 18, 17, 20, 16, 4, 19, 11, 9, 1 |
      5, 4, 18, 9, 10, 1, 14, 7, 12, 2, 19, 16, 17, 8, 15, 13, 20, 6, 11, 3 |
      18, 15, 6, 7, 13, 3, 8, 10, 9, 20, 4, 2, 19, 12, 14, 5, 16, 11, 1, 17 |
      7, 19, 13, 15, 3, 12, 5, 17, 9, 14, 4, 6, 1, 18, 16, 10, 8, 20, 2, 11 |
      2, 15, 7, 8, 10, 18, 13, 16, 6, 4, 3, 9, 11, 20, 5, 19, 14, 1, 17, 12 |
      17, 16, 9, 6, 4, 7, 5, 8, 13, 12, 18, 1, 11, 15, 14, 2, 10, 19, 3, 20 |
      15, 3, 10, 11, 4, 2, 8, 6, 12, 18, 16, 7, 1, 13, 20, 17, 9, 19, 5, 14 |
      20, 11, 4, 3, 2, 7, 15, 12, 8, 16, 19, 6, 1, 5, 10, 13, 18, 17, 9, 14 |
      8, 18, 16, 19, 9, 15, 10, 14, 11, 12, 7, 4, 5, 3, 2, 17, 6, 13, 20, 1 |
      6, 7, 1, 8, 10, 15, 14, 12, 20, 16, 2, 3, 5, 4, 17, 18, 13, 9, 19, 11 |
      20, 17, 3, 10, 18, 15, 6, 9, 2, 14, 11, 8, 13, 7, 12, 4, 5, 19, 16, 1 |
      7, 6, 11, 15, 13, 3, 20, 9, 19, 2, 5, 17, 12, 14, 8, 4, 10, 18, 16, 1 |
      6, 17, 14, 12, 15, 8, 10, 19, 3, 1, 13, 5, 18, 4, 20, 11, 9, 7, 2, 16 |
      19, 10, 20, 7, 1, 9, 13, 11, 3, 4, 18, 17, 8, 16, 15, 12, 14, 6, 2, 5 |
      16, 5, 7, 15, 3, 1, 10, 18, 13, 20, 14, 6, 19, 2, 11, 17, 12, 8, 4, 9 |
      7, 20, 5, 12, 17, 3, 10, 1, 6, 2, 8, 14, 15, 11, 19, 18, 4, 16, 13, 9 |
      4, 17, 8, 9, 2, 11, 16, 7, 12, 1, 19, 10, 20, 18, 14, 13, 3, 15, 5, 6 |
      4, 15, 13, 18, 1, 5, 17, 20, 19, 14, 10, 8, 2, 7, 6, 16, 11, 3, 9, 12 |
      2, 19, 1, 5, 12, 15, 17, 18, 11, 7, 10, 16, 8, 9, 6, 20, 14, 3, 4, 13 |
      18, 11, 8, 10, 6, 17, 16, 12, 7, 1, 13, 4, 14, 20, 15, 2, 5, 19, 9, 3 |
      11, 9, 6, 10, 18, 14, 3, 4, 1, 17, 5, 13, 16, 19, 15, 8, 2, 20, 7, 12 |
      19, 14, 16, 8, 18, 5, 20, 13, 3, 4, 10, 1, 11, 9, 17, 2, 15, 12, 6, 7 |
      14, 13, 17, 12, 10, 3, 18, 1, 11, 4, 19, 5, 20, 6, 15, 7, 2, 9, 8, 16 |
      1, 3, 9, 13, 18, 14, 10, 6, 11, 16, 2, 17, 20, 8, 5, 7, 15, 4, 19, 12 |];
