n = 50;
m = 20;

d = [| 86, 52, 53, 30, 97, 52, 28, 16, 66, 18, 39, 18, 12, 33, 96, 56, 57, 15, 85, 73 |
     5, 44, 42, 55, 53, 27, 75, 2, 78, 49, 49, 52, 82, 72, 16, 26, 5, 40, 66, 30 |
     41, 4, 28, 4, 55, 12, 46, 92, 61, 9, 5, 44, 7, 58, 26, 29, 27, 97, 48, 31 |
     88, 75, 60, 47, 41, 38, 17, 79, 79, 5, 57, 34, 52, 64, 38, 24, 8, 64, 52, 95 |
     5, 56, 59, 12, 99, 61, 49, 29, 37, 94, 60, 62, 79, 17, 72, 77, 72, 31, 32, 3 |
     29, 50, 18, 42, 64, 79, 58, 64, 57, 49, 8, 85, 83, 54, 24, 66, 9, 54, 72, 8 |
     25, 68, 85, 58, 80, 8, 36, 8, 40, 73, 60, 56, 21, 47, 25, 72, 52, 94, 73, 7 |
     29, 25, 18, 8, 94, 82, 88, 91, 6, 91, 26, 3, 42, 56, 24, 30, 26, 47, 38, 85 |
     21, 64, 87, 90, 38, 51, 21, 60, 85, 77, 95, 71, 47, 85, 53, 43, 43, 93, 96, 94 |
     78, 16, 19, 91, 46, 71, 31, 43, 54, 76, 89, 95, 28, 54, 89, 93, 69, 70, 24, 24 |
     67, 68, 35, 88, 93, 13, 64, 48, 33, 83, 81, 50, 40, 27, 84, 76, 17, 23, 23, 81 |
     11, 96, 94, 63, 42, 22, 80, 93, 63, 15, 11, 10, 52, 75, 13, 7, 92, 65, 55, 26 |
     88, 92, 9, 11, 92, 93, 29, 24, 11, 51, 9, 58, 91, 12, 18, 10, 1, 19, 7, 66 |
     35, 38, 35, 6, 40, 63, 53, 57, 23, 66, 17, 74, 35, 53, 68, 28, 49, 53, 11, 67 |
     16, 88, 23, 61, 11, 41, 94, 25, 88, 17, 55, 61, 68, 97, 16, 68, 6, 78, 62, 8 |
     83, 46, 54, 42, 45, 79, 32, 49, 77, 75, 13, 46, 5, 81, 84, 87, 38, 99, 42, 95 |
     78, 96, 93, 28, 70, 25, 82, 45, 41, 44, 9, 62, 38, 53, 52, 75, 47, 13, 8, 4 |
     59, 40, 93, 45, 32, 67, 76, 14, 59, 73, 56, 30, 12, 72, 96, 14, 90, 26, 53, 4 |
     46, 71, 92, 89, 45, 45, 4, 68, 61, 57, 63, 99, 52, 18, 39, 24, 79, 86, 56, 94 |
     65, 59, 22, 37, 9, 20, 42, 93, 27, 40, 44, 98, 62, 5, 89, 56, 57, 82, 40, 19 |
     47, 81, 1, 14, 86, 29, 74, 82, 55, 69, 54, 52, 50, 41, 24, 34, 45, 46, 45, 2 |
     28, 12, 99, 32, 56, 28, 67, 26, 77, 61, 86, 71, 30, 57, 53, 86, 18, 76, 58, 52 |
     28, 25, 15, 23, 83, 2, 15, 6, 40, 30, 83, 11, 95, 89, 16, 72, 7, 77, 38, 25 |
     63, 53, 30, 79, 9, 77, 88, 26, 1, 64, 72, 94, 3, 97, 57, 50, 23, 10, 76, 8 |
     98, 91, 45, 21, 53, 75, 18, 22, 25, 40, 28, 83, 30, 44, 35, 54, 49, 32, 95, 92 |
     63, 56, 18, 92, 9, 94, 96, 70, 67, 26, 83, 21, 67, 87, 38, 59, 61, 84, 33, 17 |
     39, 17, 77, 3, 69, 73, 63, 89, 90, 30, 5, 27, 32, 97, 76, 6, 19, 57, 26, 93 |
     54, 12, 80, 68, 34, 73, 61, 78, 21, 31, 50, 29, 93, 36, 99, 32, 68, 52, 70, 48 |
     24, 2, 55, 33, 19, 33, 28, 38, 70, 88, 52, 59, 50, 75, 23, 5, 71, 29, 53, 79 |
     9, 46, 55, 13, 64, 22, 78, 12, 28, 56, 99, 51, 46, 41, 96, 97, 66, 3, 83, 27 |
     16, 63, 43, 92, 16, 8, 26, 38, 36, 88, 67, 47, 99, 81, 46, 84, 42, 68, 62, 75 |
     67, 61, 50, 71, 9, 7, 85, 74, 63, 93, 89, 56, 37, 84, 58, 62, 79, 62, 19, 42 |
     64, 6, 55, 51, 9, 99, 83, 16, 82, 72, 31, 54, 68, 70, 12, 52, 10, 25, 92, 35 |
     45, 54, 86, 11, 59, 54, 98, 34, 69, 97, 50, 27, 88, 35, 47, 23, 42, 98, 15, 17 |
     51, 59, 82, 70, 4, 53, 27, 47, 93, 24, 8, 4, 85, 4, 18, 94, 90, 29, 24, 53 |
     12, 74, 73, 3, 21, 48, 63, 63, 60, 40, 65, 66, 56, 6, 46, 37, 55, 6, 34, 66 |
     37, 14, 89, 82, 24, 21, 80, 88, 42, 84, 51, 5, 85, 21, 85, 46, 68, 25, 82, 55 |
     1, 97, 53, 60, 30, 38, 45, 94, 27, 32, 46, 3, 46, 93, 3, 64, 33, 59, 57, 63 |
     2, 27, 85, 91, 90, 75, 53, 98, 13, 29, 71, 30, 40, 15, 90, 77, 1, 11, 11, 25 |
     94, 89, 95, 74, 93, 49, 86, 11, 38, 58, 22, 53, 73, 46, 71, 10, 45, 33, 7, 96 |
     40, 26, 9, 53, 33, 72, 58, 27, 29, 43, 55, 58, 16, 77, 57, 81, 1, 76, 42, 3 |
     25, 95, 17, 46, 28, 57, 32, 52, 50, 26, 91, 97, 85, 96, 57, 82, 43, 4, 14, 76 |
     27, 45, 44, 31, 92, 86, 82, 24, 9, 13, 77, 54, 27, 41, 85, 53, 69, 29, 27, 32 |
     23, 41, 2, 4, 53, 51, 31, 46, 84, 77, 32, 8, 73, 59, 79, 21, 40, 16, 88, 56 |
     28, 20, 58, 81, 13, 85, 17, 30, 75, 81, 32, 89, 21, 51, 57, 67, 45, 74, 41, 84 |
     19, 84, 74, 62, 72, 73, 20, 59, 21, 76, 91, 90, 21, 52, 71, 28, 71, 80, 48, 11 |
     12, 16, 35, 4, 5, 31, 41, 52, 61, 25, 99, 59, 85, 10, 22, 27, 13, 6, 47, 42 |
     2, 97, 82, 36, 18, 89, 10, 18, 77, 66, 18, 42, 49, 23, 62, 94, 26, 80, 11, 24 |
     96, 45, 10, 62, 36, 93, 98, 24, 68, 72, 67, 54, 13, 56, 51, 60, 17, 5, 8, 55 |
     4, 69, 21, 54, 17, 19, 58, 81, 85, 85, 45, 42, 31, 19, 85, 3, 13, 42, 51, 30 |];

mc = [| 16, 1, 20, 3, 19, 11, 10, 14, 15, 9, 12, 5, 13, 7, 2, 8, 6, 17, 18, 4 |
      5, 9, 10, 18, 13, 3, 8, 14, 20, 4, 12, 11, 7, 1, 16, 17, 2, 19, 6, 15 |
      17, 7, 3, 4, 2, 12, 15, 6, 18, 11, 10, 14, 16, 9, 19, 5, 1, 20, 8, 13 |
      17, 10, 11, 1, 16, 4, 6, 18, 13, 15, 19, 14, 3, 7, 5, 20, 8, 12, 2, 9 |
      17, 15, 2, 3, 7, 14, 16, 11, 12, 10, 13, 1, 19, 8, 20, 9, 18, 6, 5, 4 |
      3, 17, 13, 7, 1, 2, 9, 11, 15, 18, 16, 20, 12, 8, 5, 4, 6, 10, 14, 19 |
      8, 12, 10, 6, 19, 20, 14, 11, 2, 5, 13, 4, 9, 16, 15, 18, 3, 1, 7, 17 |
      3, 12, 8, 2, 13, 15, 7, 14, 17, 20, 11, 5, 10, 16, 4, 18, 1, 6, 9, 19 |
      4, 6, 15, 1, 13, 14, 8, 3, 7, 17, 11, 2, 19, 12, 18, 10, 20, 16, 5, 9 |
      8, 16, 12, 18, 10, 7, 11, 9, 1, 6, 17, 5, 13, 4, 2, 15, 3, 20, 14, 19 |
      1, 2, 4, 16, 20, 11, 8, 10, 12, 13, 3, 5, 18, 9, 15, 17, 19, 7, 6, 14 |
      5, 4, 13, 12, 6, 10, 9, 8, 19, 17, 20, 15, 7, 16, 1, 3, 11, 14, 18, 2 |
      12, 19, 16, 1, 7, 11, 9, 14, 15, 6, 2, 4, 20, 10, 8, 17, 5, 18, 3, 13 |
      1, 17, 11, 12, 16, 18, 14, 6, 20, 8, 2, 10, 15, 19, 4, 9, 7, 3, 13, 5 |
      4, 13, 10, 12, 16, 18, 11, 9, 2, 14, 17, 1, 8, 15, 5, 3, 19, 20, 6, 7 |
      14, 10, 12, 5, 8, 2, 1, 20, 13, 18, 4, 7, 3, 16, 9, 11, 17, 15, 19, 6 |
      9, 12, 3, 20, 17, 7, 5, 14, 11, 16, 4, 13, 19, 2, 6, 15, 8, 10, 1, 18 |
      5, 20, 2, 18, 8, 9, 11, 10, 6, 14, 3, 1, 15, 12, 16, 19, 17, 13, 4, 7 |
      2, 18, 1, 9, 20, 8, 13, 17, 16, 15, 5, 7, 6, 4, 19, 3, 12, 10, 14, 11 |
      15, 8, 18, 3, 10, 6, 13, 17, 4, 19, 11, 14, 16, 7, 12, 9, 2, 20, 1, 5 |
      8, 18, 5, 11, 10, 2, 17, 14, 19, 4, 20, 16, 9, 13, 3, 7, 1, 12, 15, 6 |
      10, 8, 20, 16, 1, 11, 12, 9, 18, 14, 17, 2, 7, 5, 19, 15, 4, 3, 6, 13 |
      3, 19, 10, 15, 13, 2, 7, 17, 8, 5, 11, 18, 14, 16, 1, 12, 9, 20, 6, 4 |
      9, 3, 10, 15, 5, 8, 19, 2, 4, 18, 6, 12, 20, 13, 11, 16, 17, 1, 7, 14 |
      6, 9, 16, 7, 4, 12, 5, 20, 11, 19, 18, 3, 13, 8, 14, 2, 10, 15, 17, 1 |
      20, 6, 1, 2, 10, 19, 17, 4, 12, 13, 9, 18, 11, 15, 7, 8, 14, 16, 3, 5 |
      20, 1, 19, 18, 5, 2, 17, 3, 4, 10, 12, 9, 15, 16, 7, 8, 14, 11, 13, 6 |
      1, 2, 19, 18, 5, 7, 12, 20, 17, 9, 4, 14, 16, 13, 15, 8, 3, 11, 6, 10 |
      7, 13, 4, 6, 16, 9, 10, 12, 19, 15, 17, 18, 1, 3, 20, 11, 5, 2, 14, 8 |
      3, 13, 9, 6, 2, 16, 19, 18, 17, 8, 4, 12, 1, 15, 14, 7, 10, 11, 5, 20 |
      2, 13, 9, 10, 20, 14, 8, 7, 15, 4, 6, 19, 12, 16, 3, 5, 18, 17, 11, 1 |
      10, 1, 5, 4, 20, 15, 7, 18, 12, 6, 2, 16, 3, 9, 19, 13, 17, 14, 8, 11 |
      14, 5, 13, 9, 19, 16, 2, 1, 18, 7, 8, 11, 3, 6, 4, 10, 17, 12, 15, 20 |
      7, 5, 11, 17, 9, 3, 15, 1, 12, 4, 2, 14, 8, 13, 6, 16, 19, 10, 20, 18 |
      3, 17, 13, 2, 8, 18, 10, 7, 16, 9, 4, 12, 1, 14, 15, 6, 20, 19, 5, 11 |
      14, 10, 12, 4, 6, 17, 20, 2, 9, 5, 7, 16, 1, 3, 8, 13, 19, 18, 11, 15 |
      11, 6, 3, 10, 1, 19, 20, 8, 9, 13, 5, 16, 14, 18, 2, 17, 12, 7, 15, 4 |
      11, 17, 16, 7, 3, 14, 1, 19, 10, 12, 13, 20, 18, 8, 2, 15, 5, 6, 9, 4 |
      3, 15, 14, 4, 9, 20, 8, 18, 11, 6, 16, 19, 12, 13, 7, 10, 1, 17, 2, 5 |
      10, 12, 17, 15, 4, 8, 14, 3, 7, 1, 13, 9, 2, 19, 20, 18, 11, 6, 16, 5 |
      16, 18, 6, 12, 7, 2, 8, 17, 14, 11, 20, 19, 13, 4, 5, 15, 1, 3, 9, 10 |
      3, 16, 5, 12, 18, 14, 8, 17, 13, 7, 6, 19, 2, 15, 20, 1, 9, 10, 11, 4 |
      20, 4, 10, 12, 13, 16, 19, 14, 11, 9, 1, 8, 18, 6, 17, 2, 15, 5, 7, 3 |
      2, 6, 9, 7, 19, 15, 11, 13, 18, 12, 10, 3, 1, 8, 16, 20, 4, 5, 17, 14 |
      15, 3, 9, 8, 5, 19, 14, 7, 6, 20, 13, 12, 16, 17, 4, 2, 10, 1, 18, 11 |
      15, 14, 17, 12, 7, 19, 4, 13, 10, 1, 8, 11, 2, 3, 5, 16, 9, 20, 18, 6 |
      14, 17, 19, 2, 9, 12, 5, 20, 10, 16, 15, 11, 13, 3, 1, 18, 7, 4, 6, 8 |
      14, 5, 12, 16, 13, 9, 17, 1, 20, 8, 15, 6, 4, 10, 18, 19, 11, 3, 2, 7 |
      12, 6, 15, 1, 17, 3, 10, 2, 11, 7, 18, 20, 14, 16, 4, 5, 13, 8, 9, 19 |
      20, 2, 18, 11, 9, 4, 19, 1, 10, 3, 6, 17, 7, 5, 12, 16, 8, 13, 15, 14 |];
