n = 50;
m = 15;

d = [| 81, 67, 43, 3, 2, 76, 51, 50, 28, 62, 58, 33, 7, 52, 36 |
     83, 60, 26, 71, 47, 72, 37, 51, 77, 62, 7, 25, 42, 53, 65 |
     56, 63, 4, 49, 87, 60, 57, 95, 66, 85, 98, 89, 59, 39, 23 |
     94, 11, 56, 52, 69, 7, 75, 13, 11, 56, 72, 83, 63, 84, 21 |
     91, 43, 77, 69, 37, 87, 39, 89, 67, 92, 8, 62, 32, 5, 7 |
     18, 1, 63, 28, 21, 98, 39, 77, 58, 64, 44, 67, 61, 61, 58 |
     19, 5, 33, 24, 97, 37, 32, 65, 8, 27, 48, 81, 8, 47, 16 |
     79, 30, 52, 35, 14, 84, 2, 3, 58, 3, 82, 32, 98, 72, 38 |
     12, 80, 41, 14, 82, 59, 98, 43, 66, 41, 49, 77, 45, 51, 52 |
     65, 91, 50, 13, 98, 56, 55, 23, 34, 7, 41, 45, 3, 54, 88 |
     9, 63, 50, 49, 33, 59, 77, 6, 21, 44, 56, 12, 89, 33, 97 |
     83, 98, 15, 13, 68, 18, 63, 2, 26, 22, 97, 17, 34, 91, 59 |
     93, 3, 19, 8, 84, 47, 31, 7, 78, 60, 92, 93, 3, 40, 17 |
     10, 16, 5, 81, 56, 62, 84, 73, 96, 44, 97, 86, 43, 53, 23 |
     3, 72, 88, 1, 48, 55, 45, 27, 77, 5, 60, 30, 9, 59, 41 |
     53, 66, 77, 53, 27, 52, 4, 38, 76, 88, 45, 83, 46, 68, 40 |
     30, 93, 76, 48, 7, 32, 59, 55, 19, 54, 47, 20, 71, 88, 93 |
     7, 67, 74, 11, 32, 79, 50, 9, 15, 62, 30, 62, 23, 70, 51 |
     51, 54, 97, 16, 34, 6, 64, 29, 10, 70, 54, 25, 50, 15, 28 |
     38, 74, 70, 37, 61, 51, 80, 10, 94, 74, 53, 6, 96, 50, 42 |
     85, 85, 71, 68, 61, 39, 93, 95, 44, 27, 44, 51, 51, 31, 4 |
     65, 40, 52, 93, 50, 50, 81, 48, 76, 18, 53, 8, 92, 78, 97 |
     59, 62, 91, 69, 52, 38, 57, 98, 81, 53, 12, 51, 32, 46, 91 |
     78, 16, 38, 10, 75, 52, 92, 38, 87, 39, 15, 69, 90, 23, 44 |
     3, 9, 31, 51, 20, 7, 45, 10, 55, 75, 93, 9, 56, 33, 39 |
     82, 91, 49, 13, 67, 65, 45, 81, 91, 47, 51, 84, 27, 27, 49 |
     81, 4, 55, 54, 46, 91, 38, 66, 64, 9, 17, 85, 16, 89, 32 |
     2, 48, 51, 58, 73, 71, 46, 64, 97, 6, 87, 74, 10, 92, 31 |
     26, 26, 87, 50, 64, 97, 90, 33, 76, 35, 86, 70, 5, 72, 30 |
     43, 72, 68, 15, 62, 86, 84, 14, 19, 33, 95, 51, 74, 80, 69 |
     82, 96, 63, 59, 94, 83, 52, 60, 54, 70, 45, 37, 81, 16, 9 |
     83, 10, 88, 49, 84, 62, 8, 96, 20, 57, 41, 9, 16, 16, 62 |
     74, 65, 71, 22, 22, 73, 52, 86, 93, 50, 51, 49, 67, 36, 62 |
     41, 16, 88, 83, 37, 42, 71, 78, 41, 24, 35, 62, 92, 7, 95 |
     36, 71, 65, 42, 50, 89, 92, 82, 21, 65, 37, 48, 65, 2, 94 |
     10, 95, 98, 14, 34, 20, 1, 64, 57, 54, 22, 53, 73, 89, 45 |
     92, 72, 24, 79, 20, 89, 33, 7, 91, 69, 22, 41, 55, 27, 98 |
     73, 17, 9, 77, 63, 27, 58, 76, 69, 39, 24, 89, 56, 34, 2 |
     6, 87, 83, 74, 38, 63, 96, 83, 73, 71, 88, 32, 61, 64, 90 |
     24, 32, 65, 53, 3, 58, 13, 94, 70, 21, 54, 9, 99, 85, 92 |
     55, 37, 11, 81, 25, 80, 57, 47, 30, 69, 11, 80, 12, 45, 90 |
     14, 48, 51, 46, 95, 86, 71, 20, 42, 50, 63, 93, 26, 82, 35 |
     40, 30, 16, 13, 56, 92, 51, 64, 70, 95, 95, 17, 32, 93, 47 |
     64, 49, 52, 22, 95, 57, 98, 59, 89, 12, 39, 89, 82, 80, 54 |
     27, 99, 13, 50, 57, 85, 34, 33, 76, 22, 82, 52, 80, 86, 38 |
     98, 76, 8, 60, 22, 24, 41, 39, 5, 72, 56, 60, 17, 64, 97 |
     27, 16, 36, 86, 66, 85, 63, 12, 10, 76, 57, 84, 23, 44, 46 |
     30, 74, 91, 12, 63, 82, 97, 91, 68, 36, 5, 54, 90, 95, 81 |
     31, 92, 30, 55, 38, 57, 83, 43, 38, 61, 43, 93, 40, 87, 28 |
     66, 29, 43, 86, 92, 74, 97, 49, 89, 39, 51, 11, 90, 9, 50 |];

mc = [| 9, 10, 13, 14, 6, 15, 2, 12, 8, 7, 5, 4, 3, 1, 11 |
      3, 11, 7, 8, 13, 6, 14, 9, 4, 5, 2, 12, 15, 10, 1 |
      5, 13, 8, 14, 2, 6, 4, 15, 7, 12, 3, 1, 10, 11, 9 |
      14, 3, 8, 5, 2, 11, 10, 1, 4, 15, 13, 6, 7, 9, 12 |
      9, 13, 1, 10, 5, 14, 8, 3, 4, 7, 15, 2, 11, 6, 12 |
      1, 6, 11, 2, 10, 3, 8, 7, 15, 12, 13, 14, 4, 9, 5 |
      3, 1, 15, 14, 8, 11, 13, 7, 10, 9, 12, 6, 2, 4, 5 |
      12, 7, 11, 1, 8, 13, 10, 4, 6, 3, 9, 15, 5, 14, 2 |
      10, 12, 8, 5, 13, 14, 9, 7, 2, 1, 15, 11, 4, 6, 3 |
      2, 13, 4, 14, 12, 11, 15, 10, 6, 1, 9, 7, 8, 3, 5 |
      8, 3, 1, 7, 14, 12, 9, 11, 6, 15, 2, 4, 5, 10, 13 |
      3, 14, 12, 5, 15, 1, 11, 9, 8, 4, 13, 7, 2, 6, 10 |
      1, 8, 2, 4, 3, 5, 12, 9, 10, 7, 13, 14, 6, 11, 15 |
      7, 8, 9, 14, 15, 5, 3, 6, 13, 11, 4, 1, 2, 12, 10 |
      6, 13, 4, 11, 10, 9, 1, 15, 2, 12, 7, 5, 14, 8, 3 |
      9, 5, 12, 3, 11, 8, 4, 2, 7, 13, 6, 14, 1, 15, 10 |
      2, 9, 8, 14, 12, 4, 13, 15, 3, 11, 5, 1, 6, 10, 7 |
      12, 11, 1, 13, 4, 8, 6, 14, 7, 5, 3, 10, 9, 15, 2 |
      6, 14, 9, 7, 1, 8, 2, 12, 11, 4, 15, 13, 10, 3, 5 |
      8, 14, 12, 1, 2, 10, 6, 11, 7, 15, 4, 9, 5, 13, 3 |
      3, 9, 15, 12, 5, 11, 7, 14, 6, 8, 4, 13, 10, 2, 1 |
      4, 10, 15, 6, 2, 12, 3, 11, 9, 8, 1, 14, 13, 5, 7 |
      6, 8, 15, 10, 11, 14, 2, 4, 3, 7, 9, 13, 1, 12, 5 |
      12, 6, 13, 9, 2, 7, 11, 1, 15, 10, 4, 14, 8, 3, 5 |
      14, 8, 9, 7, 12, 6, 3, 15, 10, 4, 2, 13, 1, 11, 5 |
      12, 3, 6, 4, 14, 11, 15, 10, 8, 1, 5, 7, 2, 13, 9 |
      9, 3, 4, 10, 6, 12, 15, 7, 2, 1, 8, 5, 13, 14, 11 |
      10, 4, 2, 15, 3, 14, 5, 6, 8, 13, 11, 7, 9, 12, 1 |
      10, 2, 7, 15, 6, 5, 1, 12, 14, 8, 4, 9, 13, 11, 3 |
      15, 7, 3, 10, 11, 1, 6, 13, 2, 12, 14, 5, 4, 8, 9 |
      5, 13, 6, 11, 15, 4, 7, 9, 8, 3, 10, 2, 12, 14, 1 |
      14, 13, 1, 7, 5, 11, 3, 6, 10, 8, 4, 15, 12, 9, 2 |
      9, 6, 15, 12, 8, 11, 5, 14, 4, 2, 7, 1, 13, 10, 3 |
      7, 8, 15, 2, 1, 4, 9, 5, 10, 12, 13, 11, 6, 3, 14 |
      3, 7, 12, 10, 5, 8, 9, 13, 4, 1, 11, 14, 2, 6, 15 |
      12, 13, 5, 15, 6, 2, 14, 9, 3, 8, 11, 1, 10, 4, 7 |
      9, 3, 4, 8, 13, 10, 2, 11, 6, 5, 14, 12, 1, 7, 15 |
      15, 7, 12, 10, 13, 11, 5, 6, 14, 1, 8, 2, 9, 3, 4 |
      7, 11, 14, 9, 3, 4, 6, 10, 1, 5, 2, 12, 13, 15, 8 |
      13, 3, 5, 7, 1, 14, 15, 4, 8, 9, 10, 6, 12, 11, 2 |
      6, 2, 4, 15, 9, 1, 11, 14, 5, 7, 13, 10, 12, 8, 3 |
      9, 7, 10, 15, 14, 6, 12, 1, 8, 5, 3, 4, 2, 13, 11 |
      2, 12, 6, 8, 9, 3, 7, 1, 13, 4, 15, 5, 10, 11, 14 |
      11, 3, 8, 12, 5, 6, 4, 1, 10, 13, 9, 15, 14, 2, 7 |
      9, 2, 11, 15, 7, 14, 13, 12, 10, 3, 1, 5, 8, 4, 6 |
      10, 3, 6, 7, 4, 13, 15, 2, 14, 9, 8, 1, 11, 5, 12 |
      6, 10, 8, 12, 13, 1, 14, 11, 4, 2, 9, 3, 15, 5, 7 |
      1, 12, 11, 3, 10, 2, 8, 9, 7, 13, 5, 4, 15, 14, 6 |
      9, 6, 1, 4, 7, 13, 14, 8, 12, 5, 3, 11, 2, 10, 15 |
      12, 4, 1, 5, 9, 3, 10, 13, 6, 8, 15, 7, 11, 2, 14 |];
