n = 20;
m = 15;

d = [| 31, 6, 20, 13, 7, 9, 99, 75, 64, 93, 91, 9, 88, 33, 84 |
     4, 7, 68, 77, 9, 7, 83, 70, 10, 56, 13, 44, 65, 6, 8 |
     32, 53, 28, 67, 31, 63, 73, 93, 2, 94, 94, 58, 99, 65, 95 |
     28, 97, 97, 44, 94, 41, 65, 69, 87, 62, 90, 55, 17, 37, 70 |
     51, 97, 29, 84, 49, 84, 55, 67, 80, 71, 46, 56, 67, 21, 31 |
     99, 77, 72, 7, 65, 62, 76, 95, 59, 92, 21, 46, 74, 33, 57 |
     74, 6, 36, 81, 97, 87, 83, 60, 88, 69, 99, 88, 76, 27, 68 |
     25, 50, 40, 58, 96, 39, 70, 91, 23, 5, 82, 9, 45, 65, 15 |
     78, 76, 55, 96, 83, 19, 75, 14, 25, 93, 48, 45, 38, 45, 53 |
     94, 13, 29, 86, 40, 79, 2, 24, 64, 81, 17, 63, 74, 11, 42 |
     94, 55, 74, 40, 99, 35, 66, 80, 29, 37, 17, 37, 72, 66, 25 |
     53, 54, 54, 86, 59, 41, 27, 70, 81, 52, 60, 89, 86, 76, 33 |
     45, 43, 36, 22, 75, 31, 91, 79, 65, 25, 58, 80, 35, 37, 83 |
     97, 91, 95, 62, 36, 25, 33, 13, 39, 85, 43, 68, 31, 58, 14 |
     98, 87, 10, 89, 27, 38, 24, 14, 87, 64, 92, 2, 62, 99, 68 |
     44, 72, 82, 56, 77, 28, 47, 2, 75, 77, 79, 68, 22, 64, 79 |
     31, 92, 12, 22, 94, 80, 21, 42, 79, 58, 32, 62, 76, 99, 38 |
     95, 6, 36, 72, 73, 86, 29, 64, 90, 41, 40, 85, 67, 52, 6 |
     34, 60, 44, 35, 61, 15, 80, 87, 93, 37, 13, 37, 64, 71, 46 |
     57, 68, 33, 59, 13, 44, 93, 59, 38, 12, 8, 10, 46, 25, 72 |];

mc = [| 15, 14, 1, 10, 12, 9, 7, 4, 13, 5, 8, 11, 3, 2, 6 |
      5, 3, 14, 7, 13, 11, 12, 15, 10, 2, 8, 6, 1, 9, 4 |
      1, 15, 6, 11, 10, 4, 7, 12, 9, 13, 14, 2, 3, 8, 5 |
      6, 2, 8, 9, 11, 13, 3, 14, 12, 5, 10, 4, 1, 7, 15 |
      6, 2, 9, 7, 8, 14, 11, 1, 5, 10, 4, 13, 3, 12, 15 |
      2, 8, 4, 15, 7, 14, 11, 9, 13, 5, 12, 1, 3, 10, 6 |
      12, 14, 6, 8, 3, 15, 4, 13, 9, 11, 1, 5, 2, 10, 7 |
      4, 7, 3, 12, 11, 9, 5, 10, 15, 6, 13, 14, 2, 8, 1 |
      14, 5, 9, 1, 13, 3, 7, 4, 12, 8, 2, 11, 15, 10, 6 |
      5, 6, 10, 15, 8, 7, 4, 13, 11, 14, 12, 1, 9, 2, 3 |
      1, 13, 6, 9, 8, 14, 11, 15, 2, 10, 12, 4, 3, 5, 7 |
      6, 1, 7, 9, 13, 3, 14, 12, 5, 2, 8, 10, 15, 4, 11 |
      9, 11, 7, 3, 1, 10, 12, 8, 6, 2, 15, 5, 4, 13, 14 |
      8, 4, 5, 11, 10, 9, 15, 2, 6, 1, 3, 13, 14, 7, 12 |
      8, 6, 7, 4, 3, 11, 15, 14, 9, 12, 2, 5, 1, 10, 13 |
      2, 11, 12, 5, 13, 3, 4, 6, 9, 1, 15, 7, 8, 10, 14 |
      1, 12, 8, 7, 9, 15, 10, 6, 14, 4, 13, 11, 5, 2, 3 |
      1, 14, 9, 5, 6, 8, 3, 2, 12, 15, 10, 4, 13, 7, 11 |
      12, 7, 4, 6, 3, 14, 5, 8, 1, 10, 15, 9, 11, 2, 13 |
      7, 9, 2, 1, 6, 3, 11, 12, 4, 13, 5, 14, 10, 8, 15 |];
