n = 100;
m = 20;

d = [| 66, 30, 18, 97, 19, 33, 8, 49, 82, 48, 29, 54, 59, 98, 17, 50, 60, 82, 99, 5 |
     74, 26, 80, 72, 66, 75, 27, 44, 16, 55, 53, 75, 37, 52, 91, 7, 8, 86, 29, 76 |
     62, 77, 48, 37, 17, 4, 75, 94, 23, 24, 99, 60, 72, 93, 21, 4, 70, 18, 23, 98 |
     93, 40, 67, 56, 42, 3, 69, 72, 22, 36, 59, 69, 20, 81, 95, 75, 21, 31, 55, 83 |
     21, 21, 95, 84, 95, 78, 40, 21, 37, 99, 56, 67, 37, 62, 82, 80, 47, 77, 55, 82 |
     71, 80, 73, 69, 64, 55, 86, 57, 51, 15, 62, 34, 11, 57, 2, 43, 68, 23, 75, 96 |
     65, 37, 47, 29, 99, 44, 88, 89, 33, 35, 94, 67, 84, 31, 12, 28, 48, 65, 32, 70 |
     75, 71, 85, 92, 99, 29, 12, 76, 81, 48, 40, 32, 73, 51, 24, 33, 55, 85, 62, 84 |
     12, 50, 21, 5, 86, 54, 93, 82, 14, 93, 48, 6, 98, 31, 90, 1, 50, 39, 14, 49 |
     98, 43, 11, 98, 49, 79, 76, 15, 42, 77, 97, 66, 64, 33, 83, 1, 77, 57, 13, 50 |
     52, 52, 41, 97, 62, 26, 25, 74, 74, 45, 75, 33, 93, 13, 79, 33, 2, 75, 37, 50 |
     63, 42, 84, 15, 7, 33, 72, 9, 6, 71, 31, 41, 98, 80, 22, 89, 2, 1, 11, 87 |
     19, 75, 30, 74, 93, 75, 78, 42, 21, 10, 5, 94, 94, 47, 74, 48, 97, 92, 28, 85 |
     41, 10, 31, 60, 45, 71, 21, 1, 7, 3, 32, 45, 19, 39, 30, 64, 69, 24, 41, 49 |
     51, 36, 86, 66, 83, 34, 98, 76, 51, 69, 7, 66, 9, 10, 20, 46, 32, 34, 67, 47 |
     36, 64, 48, 60, 81, 61, 47, 38, 51, 59, 83, 34, 23, 30, 1, 78, 30, 35, 35, 13 |
     52, 73, 65, 49, 74, 54, 62, 87, 1, 22, 99, 35, 16, 55, 97, 74, 10, 59, 25, 38 |
     13, 82, 73, 92, 17, 42, 4, 73, 55, 65, 46, 51, 93, 68, 98, 97, 74, 21, 2, 7 |
     25, 19, 91, 83, 33, 66, 77, 98, 99, 50, 93, 11, 65, 59, 45, 52, 23, 51, 19, 22 |
     24, 39, 27, 16, 38, 36, 45, 55, 94, 38, 96, 2, 18, 21, 56, 26, 54, 29, 53, 34 |
     3, 18, 24, 96, 87, 73, 68, 40, 68, 46, 71, 24, 94, 82, 55, 10, 87, 12, 33, 89 |
     75, 73, 24, 60, 31, 85, 47, 24, 9, 43, 20, 96, 81, 49, 38, 68, 12, 37, 45, 47 |
     74, 90, 67, 79, 40, 3, 98, 24, 96, 51, 32, 3, 22, 48, 24, 82, 87, 34, 95, 97 |
     43, 25, 23, 28, 40, 55, 13, 2, 54, 73, 19, 83, 52, 63, 1, 48, 86, 25, 24, 61 |
     40, 85, 96, 4, 84, 34, 7, 77, 90, 31, 75, 39, 51, 49, 59, 22, 42, 5, 78, 28 |
     15, 31, 78, 98, 60, 82, 31, 56, 99, 88, 40, 50, 94, 96, 68, 45, 51, 63, 61, 11 |
     38, 46, 17, 25, 2, 80, 20, 88, 34, 13, 13, 96, 58, 39, 2, 57, 45, 6, 83, 73 |
     20, 70, 21, 55, 49, 59, 65, 66, 97, 68, 86, 57, 80, 35, 47, 44, 66, 3, 30, 5 |
     31, 45, 52, 20, 40, 21, 86, 10, 87, 97, 80, 86, 5, 92, 15, 86, 96, 11, 51, 9 |
     1, 1, 77, 66, 78, 7, 38, 98, 15, 54, 56, 31, 12, 84, 93, 48, 50, 85, 50, 82 |
     47, 62, 39, 82, 80, 30, 58, 43, 40, 34, 6, 40, 69, 73, 97, 96, 68, 27, 8, 30 |
     4, 6, 71, 59, 97, 32, 32, 38, 45, 89, 97, 4, 41, 44, 12, 58, 76, 21, 8, 56 |
     58, 85, 18, 25, 77, 16, 6, 2, 8, 23, 92, 95, 11, 23, 16, 76, 64, 29, 2, 90 |
     10, 31, 30, 4, 45, 59, 19, 6, 97, 1, 51, 60, 44, 14, 9, 76, 60, 71, 27, 10 |
     43, 71, 44, 38, 46, 39, 2, 61, 87, 43, 61, 17, 49, 1, 78, 15, 96, 3, 18, 75 |
     58, 20, 23, 31, 35, 54, 37, 77, 9, 12, 58, 63, 98, 29, 13, 79, 89, 4, 76, 82 |
     79, 78, 23, 69, 34, 39, 9, 53, 15, 91, 78, 40, 74, 41, 48, 28, 52, 38, 67, 62 |
     32, 29, 58, 84, 33, 14, 77, 19, 26, 73, 10, 55, 48, 52, 80, 18, 76, 66, 42, 44 |
     42, 26, 70, 96, 41, 86, 59, 64, 67, 3, 85, 47, 73, 1, 10, 58, 75, 43, 26, 24 |
     82, 91, 41, 91, 68, 59, 82, 36, 59, 12, 88, 69, 62, 97, 77, 60, 40, 70, 89, 16 |
     22, 85, 69, 36, 20, 40, 8, 48, 68, 26, 85, 15, 90, 50, 43, 64, 57, 23, 72, 12 |
     7, 60, 15, 56, 5, 91, 96, 98, 3, 86, 9, 85, 94, 45, 91, 63, 35, 35, 30, 25 |
     54, 2, 31, 67, 17, 98, 67, 73, 22, 6, 76, 6, 16, 42, 94, 70, 88, 28, 57, 94 |
     39, 2, 34, 62, 49, 53, 50, 40, 2, 56, 70, 58, 29, 86, 26, 79, 80, 45, 81, 26 |
     56, 83, 19, 26, 48, 90, 22, 79, 83, 53, 48, 24, 27, 42, 39, 8, 91, 1, 24, 76 |
     81, 88, 97, 30, 12, 39, 45, 15, 44, 20, 10, 37, 14, 96, 7, 30, 28, 34, 97, 26 |
     28, 37, 13, 74, 62, 74, 40, 36, 58, 47, 40, 74, 97, 42, 82, 3, 2, 21, 7, 36 |
     4, 19, 82, 75, 99, 52, 52, 61, 51, 82, 65, 33, 51, 53, 98, 49, 58, 33, 29, 50 |
     92, 40, 76, 15, 53, 2, 27, 52, 46, 76, 56, 4, 76, 31, 85, 91, 58, 45, 83, 75 |
     14, 46, 23, 45, 87, 81, 15, 52, 49, 90, 59, 14, 81, 95, 22, 60, 65, 82, 91, 93 |
     35, 16, 55, 17, 53, 50, 39, 63, 68, 53, 63, 46, 60, 16, 11, 21, 58, 94, 28, 88 |
     73, 67, 98, 95, 13, 15, 47, 74, 4, 79, 80, 77, 97, 24, 13, 76, 18, 36, 52, 48 |
     80, 86, 6, 10, 68, 89, 50, 49, 69, 99, 9, 10, 44, 15, 76, 54, 8, 4, 77, 98 |
     15, 94, 88, 6, 57, 47, 21, 80, 30, 73, 43, 65, 62, 12, 54, 31, 27, 38, 60, 65 |
     37, 80, 75, 63, 40, 12, 7, 15, 84, 18, 81, 87, 44, 37, 9, 23, 59, 39, 25, 78 |
     74, 90, 91, 27, 38, 21, 21, 74, 25, 73, 33, 63, 76, 56, 93, 20, 26, 83, 33, 14 |
     18, 93, 18, 32, 64, 56, 95, 58, 66, 85, 94, 51, 85, 5, 83, 88, 73, 89, 20, 3 |
     57, 33, 14, 67, 37, 15, 95, 55, 88, 16, 56, 71, 79, 56, 68, 83, 17, 65, 25, 76 |
     74, 9, 29, 40, 42, 16, 30, 99, 97, 90, 56, 18, 25, 21, 21, 4, 53, 3, 70, 9 |
     72, 46, 31, 96, 16, 52, 58, 94, 15, 19, 43, 70, 22, 55, 52, 69, 52, 95, 20, 40 |
     36, 88, 67, 3, 53, 30, 27, 34, 33, 44, 38, 2, 84, 33, 49, 76, 54, 64, 43, 31 |
     66, 73, 7, 66, 25, 72, 99, 16, 44, 63, 66, 99, 34, 91, 98, 31, 23, 75, 19, 36 |
     53, 98, 97, 63, 66, 55, 56, 1, 57, 85, 68, 56, 47, 18, 59, 88, 79, 84, 72, 36 |
     72, 28, 83, 12, 47, 39, 66, 58, 89, 60, 73, 58, 89, 91, 4, 79, 10, 32, 82, 16 |
     74, 52, 44, 19, 82, 87, 11, 51, 71, 39, 62, 9, 79, 95, 99, 98, 11, 32, 65, 39 |
     75, 96, 77, 77, 97, 55, 27, 68, 33, 82, 12, 45, 81, 78, 68, 46, 68, 22, 28, 87 |
     8, 2, 76, 26, 85, 36, 65, 27, 18, 52, 98, 83, 78, 97, 46, 59, 59, 15, 64, 66 |
     68, 26, 77, 28, 81, 25, 11, 81, 2, 47, 59, 35, 19, 58, 43, 92, 26, 51, 93, 29 |
     51, 91, 36, 32, 52, 19, 49, 4, 72, 84, 21, 96, 38, 75, 77, 25, 85, 5, 38, 20 |
     26, 66, 37, 92, 79, 51, 82, 26, 48, 21, 80, 67, 73, 42, 10, 42, 49, 22, 30, 27 |
     96, 72, 54, 85, 29, 89, 36, 22, 22, 25, 51, 70, 82, 83, 26, 20, 67, 51, 59, 70 |
     11, 45, 68, 59, 88, 95, 23, 17, 78, 74, 83, 60, 38, 43, 80, 23, 7, 80, 23, 5 |
     86, 52, 29, 38, 47, 16, 78, 41, 97, 21, 22, 74, 42, 57, 76, 30, 6, 47, 21, 57 |
     81, 41, 64, 36, 85, 25, 90, 34, 98, 74, 91, 91, 42, 13, 1, 98, 61, 48, 71, 2 |
     12, 72, 90, 68, 20, 28, 92, 1, 67, 35, 63, 44, 54, 88, 34, 10, 95, 70, 47, 39 |
     39, 73, 14, 70, 91, 13, 22, 28, 50, 14, 6, 77, 35, 20, 29, 98, 11, 60, 69, 62 |
     74, 60, 36, 72, 74, 53, 56, 31, 28, 80, 45, 31, 46, 39, 47, 95, 13, 11, 29, 59 |
     99, 86, 54, 36, 90, 94, 73, 73, 61, 31, 38, 15, 28, 76, 51, 44, 54, 51, 4, 86 |
     92, 73, 47, 58, 85, 81, 45, 70, 48, 77, 5, 71, 29, 2, 6, 76, 20, 99, 87, 91 |
     73, 3, 88, 45, 34, 33, 17, 1, 27, 68, 26, 43, 41, 15, 96, 26, 5, 65, 29, 36 |
     36, 56, 26, 12, 18, 31, 86, 42, 27, 81, 91, 80, 6, 25, 33, 46, 62, 29, 95, 9 |
     16, 1, 28, 65, 50, 71, 86, 79, 29, 94, 57, 75, 41, 34, 19, 44, 90, 10, 81, 18 |
     49, 52, 61, 20, 51, 97, 4, 8, 50, 57, 4, 63, 59, 28, 91, 31, 86, 50, 34, 46 |
     53, 97, 76, 98, 76, 91, 27, 20, 25, 18, 22, 70, 55, 89, 24, 32, 63, 14, 74, 27 |
     99, 43, 8, 7, 72, 4, 92, 57, 89, 1, 35, 18, 9, 58, 2, 73, 63, 82, 26, 71 |
     91, 63, 36, 28, 5, 91, 68, 71, 79, 67, 57, 62, 8, 68, 13, 34, 34, 88, 11, 64 |
     85, 80, 65, 78, 69, 50, 21, 29, 70, 58, 51, 54, 94, 75, 87, 94, 35, 29, 26, 52 |
     77, 30, 14, 18, 82, 63, 69, 2, 85, 13, 57, 54, 37, 52, 33, 81, 60, 17, 65, 57 |
     62, 19, 76, 3, 20, 88, 91, 80, 59, 75, 33, 21, 68, 37, 68, 73, 84, 43, 65, 62 |
     29, 59, 27, 51, 78, 27, 55, 70, 95, 62, 91, 39, 63, 88, 87, 37, 62, 63, 93, 27 |
     67, 13, 22, 3, 37, 70, 49, 37, 65, 55, 77, 59, 1, 63, 21, 23, 45, 14, 94, 28 |
     78, 72, 54, 38, 35, 73, 45, 93, 87, 46, 14, 70, 18, 73, 13, 91, 15, 73, 73, 74 |
     36, 54, 47, 26, 61, 29, 90, 53, 85, 65, 11, 69, 43, 40, 45, 13, 84, 55, 67, 60 |
     76, 64, 66, 69, 24, 21, 58, 19, 5, 2, 18, 69, 49, 19, 3, 6, 7, 21, 6, 27 |
     46, 10, 13, 53, 42, 88, 91, 64, 79, 96, 66, 84, 6, 59, 40, 59, 30, 17, 36, 95 |
     52, 8, 7, 59, 10, 88, 49, 42, 27, 96, 96, 65, 30, 79, 9, 8, 34, 12, 26, 6 |
     55, 83, 82, 8, 6, 88, 65, 13, 68, 1, 54, 91, 94, 15, 79, 11, 15, 9, 31, 37 |
     48, 60, 95, 80, 92, 6, 2, 14, 73, 32, 86, 8, 53, 29, 8, 26, 1, 27, 70, 97 |
     14, 30, 50, 42, 67, 37, 73, 34, 40, 96, 81, 35, 66, 96, 99, 86, 99, 27, 40, 58 |
     54, 53, 21, 1, 4, 19, 37, 4, 65, 16, 40, 91, 77, 77, 93, 72, 93, 79, 76, 86 |];

mc = [| 18, 5, 1, 20, 13, 17, 14, 7, 2, 10, 8, 11, 19, 6, 16, 9, 12, 4, 3, 15 |
      13, 17, 4, 5, 9, 10, 14, 20, 15, 12, 1, 11, 8, 19, 7, 3, 6, 2, 18, 16 |
      19, 1, 13, 17, 9, 2, 16, 5, 20, 12, 6, 4, 14, 8, 10, 15, 7, 18, 11, 3 |
      7, 4, 13, 20, 17, 11, 5, 6, 18, 14, 12, 16, 15, 19, 10, 1, 9, 3, 8, 2 |
      14, 17, 3, 15, 19, 11, 20, 16, 8, 7, 4, 2, 18, 1, 13, 5, 6, 12, 10, 9 |
      2, 12, 13, 18, 16, 11, 19, 9, 4, 17, 20, 14, 15, 7, 8, 5, 1, 10, 6, 3 |
      11, 3, 6, 20, 2, 8, 14, 4, 10, 7, 16, 15, 13, 9, 17, 18, 12, 19, 1, 5 |
      7, 1, 10, 15, 17, 14, 16, 5, 3, 18, 19, 8, 11, 2, 6, 12, 20, 4, 9, 13 |
      18, 12, 1, 19, 15, 2, 9, 10, 5, 17, 16, 3, 11, 4, 7, 8, 13, 14, 6, 20 |
      1, 11, 6, 19, 8, 4, 10, 2, 16, 12, 15, 3, 9, 14, 7, 18, 17, 5, 13, 20 |
      8, 6, 3, 20, 16, 15, 2, 9, 19, 1, 10, 12, 13, 5, 18, 17, 11, 14, 7, 4 |
      19, 7, 3, 10, 8, 18, 20, 1, 4, 17, 14, 11, 2, 13, 6, 9, 15, 16, 12, 5 |
      16, 7, 12, 13, 14, 8, 6, 18, 10, 1, 3, 2, 5, 20, 11, 17, 9, 15, 19, 4 |
      17, 12, 3, 13, 11, 2, 6, 20, 14, 5, 1, 18, 8, 10, 7, 16, 19, 4, 9, 15 |
      14, 15, 5, 3, 11, 2, 7, 18, 1, 6, 16, 9, 13, 19, 17, 10, 12, 20, 8, 4 |
      10, 9, 12, 14, 19, 20, 5, 1, 3, 2, 16, 15, 6, 4, 18, 13, 7, 17, 8, 11 |
      13, 7, 1, 20, 11, 8, 9, 6, 5, 3, 4, 19, 2, 14, 15, 12, 16, 10, 17, 18 |
      12, 7, 17, 11, 16, 13, 19, 5, 4, 3, 1, 9, 8, 15, 18, 2, 20, 14, 6, 10 |
      5, 4, 19, 17, 16, 3, 15, 7, 20, 6, 9, 12, 1, 13, 2, 14, 8, 18, 11, 10 |
      16, 13, 7, 2, 8, 3, 14, 11, 5, 12, 10, 20, 17, 18, 1, 15, 9, 19, 4, 6 |
      16, 10, 17, 7, 8, 2, 4, 13, 20, 1, 14, 3, 18, 19, 12, 15, 5, 9, 6, 11 |
      11, 8, 3, 18, 10, 17, 13, 4, 19, 7, 9, 16, 1, 12, 5, 14, 2, 20, 15, 6 |
      19, 17, 1, 5, 9, 16, 4, 11, 20, 2, 3, 15, 13, 10, 12, 18, 8, 7, 14, 6 |
      4, 15, 20, 13, 14, 8, 9, 18, 17, 6, 16, 3, 5, 11, 7, 12, 19, 2, 1, 10 |
      13, 5, 3, 12, 14, 9, 1, 10, 6, 11, 20, 18, 16, 19, 15, 7, 8, 4, 17, 2 |
      16, 14, 7, 2, 6, 11, 19, 8, 17, 15, 20, 5, 1, 9, 18, 4, 12, 3, 13, 10 |
      1, 5, 17, 4, 20, 19, 12, 15, 3, 7, 11, 9, 8, 18, 6, 14, 13, 16, 2, 10 |
      3, 12, 18, 16, 10, 4, 1, 11, 17, 2, 19, 15, 14, 6, 13, 5, 9, 20, 7, 8 |
      11, 2, 15, 10, 18, 3, 12, 7, 19, 9, 6, 4, 17, 13, 14, 20, 16, 8, 1, 5 |
      7, 10, 16, 1, 15, 17, 6, 11, 8, 13, 4, 20, 5, 18, 2, 12, 9, 14, 19, 3 |
      2, 17, 5, 18, 9, 14, 6, 4, 12, 16, 1, 10, 13, 11, 3, 20, 7, 15, 8, 19 |
      3, 9, 8, 19, 14, 17, 6, 1, 15, 2, 7, 11, 20, 5, 12, 18, 13, 4, 16, 10 |
      17, 12, 5, 16, 8, 19, 3, 14, 2, 20, 15, 9, 11, 10, 13, 18, 1, 4, 7, 6 |
      18, 20, 15, 19, 1, 17, 9, 10, 14, 8, 16, 4, 5, 3, 7, 13, 2, 6, 12, 11 |
      4, 14, 1, 5, 13, 9, 8, 15, 6, 12, 20, 11, 7, 16, 18, 17, 10, 2, 19, 3 |
      8, 17, 19, 5, 6, 3, 20, 18, 2, 11, 14, 12, 7, 4, 1, 13, 15, 9, 10, 16 |
      2, 1, 19, 15, 13, 7, 16, 9, 17, 6, 12, 18, 20, 4, 3, 14, 8, 5, 11, 10 |
      14, 6, 11, 9, 4, 17, 16, 15, 1, 2, 10, 12, 8, 7, 18, 3, 20, 19, 5, 13 |
      7, 17, 6, 3, 8, 20, 4, 9, 2, 15, 13, 14, 10, 16, 11, 12, 5, 1, 19, 18 |
      18, 9, 20, 15, 8, 5, 4, 13, 19, 1, 16, 3, 11, 6, 12, 17, 2, 14, 10, 7 |
      8, 15, 12, 16, 10, 1, 18, 11, 9, 4, 13, 7, 5, 19, 17, 3, 6, 20, 14, 2 |
      2, 5, 19, 6, 14, 4, 1, 11, 3, 7, 16, 8, 9, 13, 20, 17, 10, 12, 15, 18 |
      19, 8, 18, 3, 6, 4, 15, 14, 20, 12, 5, 17, 7, 1, 2, 9, 10, 11, 13, 16 |
      3, 7, 8, 14, 6, 16, 18, 19, 15, 5, 17, 1, 20, 4, 10, 9, 12, 2, 13, 11 |
      12, 2, 11, 1, 3, 7, 19, 18, 17, 13, 20, 14, 5, 6, 10, 9, 8, 16, 4, 15 |
      4, 2, 14, 7, 19, 17, 15, 13, 3, 18, 11, 20, 1, 6, 16, 8, 10, 9, 12, 5 |
      2, 12, 4, 18, 15, 16, 20, 1, 10, 9, 5, 17, 11, 19, 14, 8, 6, 3, 13, 7 |
      16, 20, 12, 10, 2, 9, 1, 8, 18, 17, 6, 19, 13, 7, 3, 11, 4, 15, 14, 5 |
      19, 3, 1, 11, 6, 10, 20, 4, 2, 17, 9, 13, 8, 5, 16, 18, 15, 12, 7, 14 |
      2, 11, 15, 6, 8, 5, 4, 3, 12, 14, 20, 10, 19, 1, 9, 13, 16, 17, 7, 18 |
      19, 11, 1, 10, 9, 13, 12, 16, 20, 6, 3, 18, 8, 5, 4, 14, 17, 7, 15, 2 |
      14, 16, 3, 9, 8, 5, 18, 6, 17, 15, 10, 2, 1, 7, 12, 11, 19, 20, 13, 4 |
      2, 14, 3, 10, 4, 16, 18, 11, 19, 1, 6, 9, 20, 13, 8, 7, 15, 5, 17, 12 |
      15, 1, 8, 6, 3, 19, 11, 20, 18, 13, 5, 12, 17, 4, 2, 10, 14, 9, 7, 16 |
      15, 6, 3, 13, 17, 19, 18, 1, 2, 4, 8, 16, 20, 5, 11, 12, 14, 10, 7, 9 |
      9, 12, 11, 14, 4, 1, 10, 2, 19, 17, 16, 6, 3, 18, 8, 7, 13, 15, 20, 5 |
      19, 14, 7, 11, 12, 5, 20, 4, 15, 16, 2, 1, 6, 10, 8, 18, 9, 3, 13, 17 |
      8, 14, 20, 19, 17, 15, 1, 6, 11, 9, 7, 18, 3, 5, 2, 12, 4, 13, 10, 16 |
      7, 5, 17, 6, 13, 3, 20, 2, 15, 12, 4, 16, 14, 18, 9, 11, 10, 19, 8, 1 |
      5, 13, 12, 10, 9, 3, 19, 7, 20, 16, 15, 1, 6, 2, 17, 18, 8, 11, 4, 14 |
      17, 3, 8, 15, 9, 20, 18, 14, 16, 4, 10, 5, 1, 6, 7, 11, 19, 2, 12, 13 |
      1, 6, 5, 4, 11, 10, 9, 17, 8, 16, 18, 13, 15, 12, 14, 3, 20, 19, 7, 2 |
      14, 11, 7, 15, 5, 10, 16, 13, 1, 12, 9, 17, 4, 6, 2, 3, 8, 20, 19, 18 |
      10, 1, 18, 11, 6, 16, 14, 5, 12, 17, 20, 19, 4, 8, 3, 2, 13, 15, 7, 9 |
      18, 6, 13, 1, 12, 7, 8, 16, 17, 11, 10, 20, 5, 15, 9, 4, 3, 14, 19, 2 |
      12, 10, 13, 8, 2, 1, 6, 17, 4, 14, 16, 3, 7, 9, 11, 19, 20, 5, 18, 15 |
      4, 2, 14, 15, 1, 18, 8, 19, 11, 17, 5, 13, 7, 9, 3, 20, 6, 10, 12, 16 |
      5, 19, 20, 16, 17, 7, 9, 10, 18, 1, 13, 6, 2, 3, 11, 12, 8, 15, 14, 4 |
      12, 5, 6, 15, 19, 3, 17, 2, 11, 18, 10, 7, 16, 1, 13, 14, 4, 9, 20, 8 |
      9, 16, 8, 14, 11, 6, 12, 5, 1, 7, 10, 18, 13, 17, 15, 2, 19, 4, 20, 3 |
      5, 2, 14, 16, 1, 10, 9, 13, 18, 17, 8, 20, 6, 11, 15, 19, 12, 4, 3, 7 |
      10, 15, 14, 1, 5, 3, 6, 18, 8, 16, 13, 9, 7, 20, 17, 12, 11, 4, 19, 2 |
      5, 2, 10, 1, 20, 7, 13, 4, 17, 11, 18, 15, 8, 3, 16, 12, 6, 9, 14, 19 |
      11, 8, 2, 6, 15, 12, 16, 5, 17, 3, 7, 19, 1, 4, 20, 14, 10, 9, 18, 13 |
      6, 5, 10, 11, 15, 9, 13, 17, 12, 19, 18, 1, 16, 14, 20, 2, 3, 7, 8, 4 |
      10, 6, 12, 15, 13, 18, 7, 9, 20, 5, 8, 16, 3, 14, 17, 1, 11, 4, 2, 19 |
      20, 12, 1, 17, 8, 7, 3, 15, 2, 16, 5, 14, 13, 4, 11, 10, 9, 18, 19, 6 |
      17, 13, 7, 9, 8, 11, 6, 5, 15, 18, 10, 16, 14, 4, 12, 19, 2, 20, 1, 3 |
      8, 15, 10, 2, 14, 5, 11, 3, 17, 20, 12, 9, 4, 1, 7, 6, 19, 16, 18, 13 |
      8, 7, 14, 16, 5, 20, 13, 10, 12, 11, 9, 18, 1, 2, 6, 15, 3, 19, 4, 17 |
      15, 3, 5, 1, 16, 18, 11, 19, 20, 8, 2, 14, 4, 13, 9, 10, 6, 12, 17, 7 |
      6, 20, 15, 13, 10, 16, 12, 7, 3, 9, 4, 14, 17, 18, 8, 2, 5, 19, 1, 11 |
      20, 10, 9, 14, 11, 18, 8, 13, 4, 3, 16, 5, 1, 2, 6, 7, 12, 17, 19, 15 |
      2, 8, 20, 6, 13, 5, 12, 9, 10, 1, 15, 3, 18, 11, 17, 4, 7, 19, 16, 14 |
      2, 1, 12, 13, 3, 15, 11, 18, 7, 16, 10, 19, 14, 4, 8, 17, 20, 9, 5, 6 |
      18, 15, 2, 3, 17, 8, 10, 9, 4, 11, 19, 7, 12, 6, 14, 13, 20, 5, 16, 1 |
      17, 5, 16, 2, 9, 19, 12, 3, 11, 15, 8, 4, 20, 13, 18, 7, 10, 14, 6, 1 |
      5, 8, 19, 16, 11, 2, 13, 18, 12, 15, 10, 20, 7, 4, 17, 9, 6, 3, 1, 14 |
      15, 20, 3, 12, 7, 8, 4, 17, 9, 6, 18, 11, 16, 1, 13, 2, 14, 5, 10, 19 |
      5, 12, 17, 3, 15, 7, 19, 14, 10, 8, 6, 13, 20, 11, 4, 18, 9, 1, 16, 2 |
      18, 9, 1, 20, 19, 8, 13, 11, 17, 7, 5, 14, 6, 4, 3, 10, 15, 2, 12, 16 |
      9, 4, 5, 17, 16, 7, 11, 20, 13, 10, 18, 6, 12, 15, 1, 14, 2, 8, 3, 19 |
      9, 4, 8, 20, 1, 13, 10, 5, 11, 15, 14, 12, 7, 17, 3, 19, 16, 6, 18, 2 |
      8, 10, 5, 9, 1, 11, 7, 14, 12, 18, 15, 4, 13, 19, 16, 20, 6, 2, 17, 3 |
      12, 5, 1, 8, 17, 4, 6, 2, 16, 10, 3, 11, 20, 9, 15, 19, 13, 7, 14, 18 |
      6, 12, 2, 20, 15, 10, 19, 18, 8, 1, 9, 17, 7, 11, 4, 16, 13, 14, 3, 5 |
      20, 17, 11, 8, 14, 5, 15, 4, 1, 6, 2, 18, 9, 7, 3, 13, 10, 16, 19, 12 |
      14, 1, 18, 6, 9, 3, 20, 5, 13, 7, 2, 19, 16, 12, 17, 10, 8, 15, 4, 11 |
      16, 2, 3, 6, 19, 17, 9, 20, 14, 11, 1, 12, 13, 8, 7, 18, 10, 5, 4, 15 |
      7, 17, 3, 12, 5, 20, 2, 8, 18, 4, 9, 11, 10, 19, 16, 13, 1, 15, 6, 14 |];
