n = 30;
m = 20;

d = [| 19, 20, 36, 61, 54, 83, 39, 51, 13, 56, 25, 51, 44, 48, 97, 9, 71, 64, 22, 39 |
     87, 55, 74, 32, 24, 14, 26, 43, 87, 50, 58, 88, 62, 66, 89, 7, 60, 88, 28, 76 |
     80, 74, 46, 82, 89, 36, 38, 27, 87, 98, 71, 69, 33, 92, 38, 8, 82, 94, 57, 86 |
     24, 93, 26, 86, 14, 18, 94, 22, 79, 59, 52, 1, 41, 46, 13, 45, 53, 95, 50, 10 |
     48, 93, 19, 85, 20, 83, 39, 48, 36, 62, 57, 32, 79, 50, 50, 93, 47, 63, 8, 88 |
     66, 12, 3, 47, 55, 25, 27, 71, 2, 68, 72, 69, 80, 79, 64, 92, 92, 72, 29, 49 |
     80, 28, 45, 56, 99, 21, 69, 95, 13, 87, 71, 27, 93, 2, 20, 41, 90, 54, 83, 34 |
     43, 29, 69, 67, 40, 48, 26, 79, 39, 81, 94, 97, 43, 27, 1, 15, 97, 53, 28, 24 |
     53, 14, 9, 72, 58, 59, 13, 93, 95, 28, 95, 6, 90, 32, 5, 96, 55, 71, 79, 70 |
     17, 31, 35, 5, 92, 42, 36, 52, 20, 89, 41, 83, 41, 36, 15, 62, 52, 4, 12, 30 |
     92, 50, 69, 48, 26, 34, 47, 15, 93, 69, 85, 78, 39, 7, 5, 15, 47, 49, 22, 65 |
     31, 48, 56, 73, 99, 14, 90, 31, 48, 68, 33, 42, 6, 19, 67, 64, 96, 95, 32, 92 |
     43, 52, 57, 23, 88, 65, 99, 75, 55, 45, 89, 23, 78, 69, 79, 62, 59, 96, 12, 78 |
     8, 16, 29, 80, 7, 33, 43, 3, 42, 64, 98, 66, 12, 80, 13, 2, 20, 82, 29, 23 |
     7, 33, 75, 52, 2, 20, 41, 43, 18, 29, 52, 15, 49, 60, 32, 97, 10, 81, 74, 76 |
     17, 89, 25, 22, 71, 60, 11, 37, 54, 84, 83, 39, 42, 32, 11, 56, 60, 68, 16, 3 |
     5, 88, 99, 80, 36, 42, 42, 6, 7, 42, 70, 91, 92, 98, 57, 29, 34, 95, 41, 14 |
     48, 41, 61, 21, 63, 67, 73, 63, 27, 3, 12, 83, 91, 49, 86, 37, 99, 31, 21, 91 |
     96, 8, 59, 69, 6, 8, 80, 4, 51, 37, 40, 49, 94, 45, 38, 78, 90, 81, 85, 82 |
     55, 83, 59, 86, 73, 60, 40, 23, 2, 49, 15, 65, 63, 57, 53, 27, 65, 76, 3, 14 |
     92, 13, 86, 23, 16, 98, 5, 38, 8, 40, 71, 19, 53, 53, 18, 12, 16, 61, 24, 71 |
     85, 29, 58, 54, 11, 20, 62, 51, 16, 91, 87, 72, 11, 39, 11, 94, 71, 93, 23, 66 |
     64, 64, 84, 78, 14, 23, 75, 8, 64, 74, 42, 45, 59, 37, 23, 27, 98, 29, 32, 85 |
     30, 62, 11, 37, 45, 62, 77, 79, 37, 1, 69, 4, 32, 62, 67, 57, 34, 50, 17, 54 |
     46, 18, 82, 59, 99, 63, 69, 14, 77, 33, 70, 76, 52, 81, 64, 96, 61, 63, 5, 89 |
     15, 63, 40, 61, 76, 42, 59, 24, 92, 68, 33, 17, 80, 11, 22, 73, 44, 85, 44, 71 |
     12, 52, 1, 20, 86, 23, 72, 97, 98, 61, 63, 91, 58, 93, 45, 33, 85, 4, 23, 15 |
     5, 57, 97, 73, 44, 80, 20, 82, 43, 17, 43, 24, 33, 33, 40, 93, 39, 38, 89, 19 |
     8, 10, 20, 68, 64, 64, 85, 37, 2, 45, 21, 67, 51, 28, 45, 50, 76, 76, 60, 12 |
     93, 48, 24, 13, 38, 29, 41, 46, 63, 79, 72, 62, 58, 61, 51, 95, 98, 65, 14, 98 |];

mc = [| 16, 9, 3, 14, 20, 19, 5, 13, 7, 1, 2, 18, 10, 17, 12, 11, 8, 4, 6, 15 |
      7, 4, 5, 6, 12, 19, 10, 9, 8, 11, 13, 1, 20, 14, 3, 16, 17, 18, 2, 15 |
      4, 3, 17, 14, 1, 13, 11, 15, 2, 6, 5, 7, 19, 12, 16, 8, 10, 18, 20, 9 |
      8, 19, 5, 10, 3, 13, 15, 16, 12, 18, 6, 4, 7, 9, 1, 14, 17, 2, 11, 20 |
      4, 19, 11, 20, 12, 13, 1, 6, 16, 2, 3, 7, 17, 18, 14, 9, 10, 5, 8, 15 |
      2, 15, 14, 16, 18, 10, 6, 17, 7, 11, 8, 9, 1, 20, 13, 4, 3, 19, 5, 12 |
      18, 7, 12, 4, 5, 6, 19, 16, 17, 1, 10, 15, 20, 13, 11, 14, 2, 8, 3, 9 |
      1, 6, 14, 10, 8, 16, 18, 5, 2, 19, 7, 20, 3, 13, 9, 17, 4, 15, 12, 11 |
      8, 17, 3, 9, 10, 18, 12, 19, 2, 6, 4, 11, 20, 7, 15, 1, 14, 13, 16, 5 |
      1, 18, 12, 7, 10, 14, 9, 13, 6, 16, 20, 2, 5, 3, 19, 4, 15, 8, 11, 17 |
      8, 7, 10, 9, 1, 2, 6, 5, 11, 16, 17, 4, 14, 20, 18, 3, 12, 13, 15, 19 |
      9, 2, 12, 13, 6, 20, 16, 4, 1, 14, 5, 3, 7, 19, 18, 10, 17, 8, 15, 11 |
      14, 17, 6, 1, 20, 4, 5, 3, 8, 10, 15, 18, 2, 19, 16, 13, 9, 12, 7, 11 |
      1, 17, 7, 15, 6, 5, 3, 19, 2, 4, 18, 20, 11, 9, 14, 16, 12, 8, 13, 10 |
      1, 3, 9, 6, 14, 19, 16, 17, 18, 15, 10, 11, 7, 8, 20, 13, 4, 2, 5, 12 |
      5, 1, 14, 15, 3, 9, 2, 17, 18, 8, 19, 12, 16, 11, 4, 10, 6, 20, 13, 7 |
      8, 9, 14, 20, 7, 15, 10, 11, 18, 2, 16, 3, 1, 4, 13, 12, 6, 19, 17, 5 |
      2, 17, 9, 16, 7, 13, 8, 12, 11, 14, 20, 15, 6, 3, 4, 18, 1, 10, 5, 19 |
      19, 5, 7, 13, 11, 1, 9, 10, 3, 6, 16, 8, 12, 14, 15, 20, 2, 17, 18, 4 |
      5, 1, 4, 3, 14, 6, 10, 12, 8, 16, 15, 11, 17, 13, 18, 7, 9, 20, 2, 19 |
      10, 19, 18, 6, 7, 13, 16, 4, 5, 3, 15, 12, 8, 11, 9, 14, 20, 2, 17, 1 |
      14, 12, 5, 15, 4, 10, 3, 19, 9, 8, 2, 7, 18, 20, 1, 16, 11, 17, 6, 13 |
      18, 17, 7, 2, 11, 4, 12, 13, 19, 14, 1, 10, 5, 16, 8, 6, 9, 15, 3, 20 |
      7, 11, 14, 20, 1, 3, 18, 13, 12, 17, 6, 10, 9, 4, 2, 8, 5, 19, 16, 15 |
      3, 13, 17, 20, 2, 18, 1, 11, 19, 16, 7, 8, 15, 5, 4, 10, 6, 12, 14, 9 |
      19, 7, 12, 9, 20, 11, 16, 17, 3, 4, 13, 18, 6, 14, 5, 10, 8, 2, 1, 15 |
      11, 18, 4, 7, 8, 13, 9, 17, 10, 15, 19, 6, 2, 14, 3, 12, 16, 5, 20, 1 |
      20, 3, 12, 11, 18, 13, 1, 5, 6, 7, 8, 9, 19, 17, 2, 14, 10, 4, 16, 15 |
      12, 14, 16, 13, 11, 4, 8, 7, 1, 10, 2, 15, 6, 20, 18, 3, 9, 17, 19, 5 |
      15, 8, 7, 14, 10, 19, 1, 12, 9, 20, 6, 5, 16, 18, 2, 17, 11, 3, 4, 13 |];
