n = 30;
m = 20;

d = [| 29, 49, 5, 11, 93, 66, 31, 67, 9, 76, 55, 69, 14, 85, 77, 9, 40, 39, 17, 4 |
     9, 63, 60, 39, 4, 45, 88, 89, 2, 8, 83, 35, 99, 70, 62, 1, 15, 57, 94, 14 |
     76, 81, 45, 80, 29, 92, 30, 11, 15, 66, 76, 96, 39, 82, 84, 27, 52, 12, 57, 10 |
     9, 80, 54, 67, 90, 84, 46, 43, 6, 41, 52, 79, 46, 34, 39, 76, 97, 3, 57, 60 |
     45, 48, 14, 71, 89, 37, 36, 69, 29, 69, 34, 69, 79, 62, 69, 62, 48, 39, 97, 19 |
     49, 32, 62, 23, 46, 13, 92, 22, 24, 40, 63, 43, 46, 7, 61, 99, 99, 26, 22, 3 |
     58, 73, 98, 40, 99, 39, 70, 66, 28, 61, 56, 33, 20, 15, 8, 68, 17, 5, 33, 7 |
     21, 90, 89, 45, 13, 55, 88, 71, 80, 82, 93, 6, 23, 95, 9, 98, 5, 41, 14, 7 |
     72, 12, 36, 28, 65, 66, 26, 48, 50, 56, 93, 59, 55, 22, 93, 66, 2, 96, 84, 40 |
     32, 13, 18, 20, 49, 64, 61, 70, 35, 24, 50, 17, 47, 57, 73, 80, 93, 5, 25, 43 |
     56, 84, 58, 39, 49, 41, 74, 81, 63, 91, 65, 55, 92, 92, 54, 57, 91, 95, 42, 51 |
     86, 21, 88, 59, 99, 89, 73, 51, 78, 24, 76, 38, 59, 92, 31, 98, 2, 72, 52, 99 |
     7, 86, 68, 55, 34, 59, 41, 24, 56, 58, 82, 71, 1, 43, 12, 42, 96, 95, 98, 22 |
     51, 23, 11, 61, 27, 47, 75, 73, 16, 62, 34, 76, 97, 40, 75, 23, 40, 98, 84, 12 |
     24, 13, 44, 92, 7, 71, 92, 68, 59, 36, 26, 60, 86, 26, 83, 60, 73, 91, 85, 12 |
     84, 37, 75, 73, 45, 64, 50, 28, 34, 60, 59, 3, 33, 12, 24, 36, 81, 40, 16, 79 |
     57, 31, 55, 54, 25, 56, 68, 82, 78, 45, 60, 42, 64, 89, 85, 71, 97, 50, 66, 79 |
     3, 11, 33, 16, 29, 82, 78, 97, 53, 85, 98, 30, 45, 55, 34, 68, 82, 75, 69, 46 |
     77, 83, 44, 22, 12, 48, 27, 56, 54, 56, 33, 69, 93, 14, 11, 50, 40, 65, 38, 51 |
     90, 67, 36, 63, 99, 37, 51, 10, 34, 14, 6, 17, 86, 19, 41, 27, 30, 55, 99, 82 |
     55, 22, 35, 91, 86, 46, 4, 89, 69, 26, 33, 49, 97, 75, 85, 83, 54, 82, 5, 63 |
     45, 7, 29, 35, 37, 23, 78, 23, 86, 12, 14, 18, 46, 52, 76, 86, 4, 70, 50, 26 |
     89, 51, 90, 43, 67, 14, 9, 93, 65, 43, 14, 41, 45, 27, 22, 41, 5, 86, 18, 21 |
     12, 25, 62, 89, 60, 18, 58, 72, 33, 4, 9, 39, 42, 96, 30, 54, 5, 72, 67, 21 |
     87, 97, 48, 49, 25, 8, 83, 56, 92, 76, 52, 37, 47, 1, 24, 12, 81, 35, 77, 80 |
     36, 23, 77, 57, 83, 90, 58, 58, 9, 77, 64, 78, 93, 28, 39, 7, 13, 82, 29, 2 |
     24, 85, 80, 88, 44, 22, 82, 25, 42, 70, 96, 60, 42, 99, 29, 38, 38, 52, 40, 83 |
     85, 20, 53, 99, 25, 61, 17, 47, 4, 72, 72, 50, 13, 62, 98, 31, 87, 18, 85, 30 |
     67, 82, 77, 1, 84, 33, 58, 84, 6, 71, 21, 88, 85, 95, 78, 23, 14, 16, 66, 73 |
     47, 5, 25, 49, 26, 59, 45, 10, 39, 60, 46, 2, 74, 47, 9, 97, 77, 45, 90, 86 |];

mc = [| 19, 13, 10, 1, 4, 6, 11, 9, 18, 5, 12, 16, 20, 7, 3, 17, 8, 2, 14, 15 |
      10, 3, 15, 2, 9, 18, 19, 1, 4, 14, 11, 20, 12, 17, 6, 5, 7, 8, 13, 16 |
      18, 17, 16, 12, 11, 6, 9, 15, 3, 4, 5, 1, 8, 19, 10, 2, 20, 7, 14, 13 |
      4, 18, 2, 8, 1, 11, 12, 20, 7, 5, 15, 3, 14, 16, 17, 10, 6, 13, 19, 9 |
      16, 11, 13, 2, 10, 20, 19, 1, 5, 7, 15, 6, 3, 4, 12, 18, 14, 9, 8, 17 |
      5, 2, 20, 17, 9, 11, 13, 18, 12, 10, 6, 1, 8, 7, 16, 15, 19, 14, 4, 3 |
      4, 13, 16, 8, 2, 12, 19, 1, 9, 20, 6, 18, 3, 11, 15, 5, 17, 7, 14, 10 |
      15, 2, 7, 13, 4, 5, 11, 8, 12, 17, 19, 10, 3, 9, 18, 6, 20, 14, 16, 1 |
      1, 16, 11, 6, 14, 18, 9, 12, 19, 17, 10, 20, 2, 13, 8, 15, 4, 7, 5, 3 |
      19, 7, 8, 14, 9, 16, 13, 15, 4, 3, 12, 18, 5, 2, 11, 20, 17, 10, 6, 1 |
      19, 9, 10, 16, 18, 3, 7, 8, 14, 6, 17, 2, 4, 12, 15, 20, 13, 11, 1, 5 |
      16, 14, 10, 4, 7, 18, 11, 8, 15, 2, 6, 13, 5, 20, 19, 3, 12, 17, 1, 9 |
      8, 14, 10, 2, 19, 11, 20, 18, 3, 7, 9, 5, 6, 17, 1, 4, 13, 15, 12, 16 |
      6, 8, 10, 4, 1, 18, 9, 2, 3, 15, 16, 11, 17, 20, 19, 12, 7, 13, 5, 14 |
      11, 19, 13, 16, 6, 2, 1, 7, 10, 18, 17, 8, 5, 12, 9, 4, 15, 3, 14, 20 |
      6, 11, 14, 2, 10, 19, 4, 8, 13, 3, 7, 15, 9, 20, 1, 5, 12, 18, 16, 17 |
      19, 1, 7, 15, 11, 6, 12, 4, 16, 13, 9, 20, 18, 14, 3, 5, 10, 2, 8, 17 |
      9, 6, 4, 8, 1, 17, 18, 15, 2, 16, 14, 11, 3, 10, 12, 20, 13, 5, 7, 19 |
      10, 11, 2, 5, 9, 14, 8, 6, 20, 7, 12, 17, 15, 18, 4, 13, 1, 19, 16, 3 |
      3, 11, 12, 5, 16, 1, 13, 15, 19, 17, 14, 4, 2, 18, 8, 10, 9, 6, 7, 20 |
      13, 12, 9, 15, 10, 19, 2, 17, 16, 20, 6, 11, 4, 5, 7, 3, 8, 14, 18, 1 |
      18, 19, 3, 15, 7, 1, 11, 20, 10, 17, 8, 13, 12, 16, 9, 14, 5, 2, 6, 4 |
      6, 4, 10, 3, 2, 13, 14, 1, 8, 18, 7, 19, 11, 9, 16, 17, 5, 12, 20, 15 |
      18, 16, 14, 12, 8, 3, 20, 7, 9, 5, 13, 10, 11, 2, 1, 15, 4, 19, 6, 17 |
      18, 15, 7, 10, 20, 4, 13, 11, 16, 17, 2, 6, 19, 1, 8, 12, 9, 14, 5, 3 |
      7, 3, 4, 17, 10, 12, 13, 9, 2, 18, 8, 11, 16, 1, 19, 20, 5, 14, 15, 6 |
      7, 11, 12, 5, 9, 8, 18, 20, 14, 15, 16, 4, 10, 2, 1, 3, 6, 13, 17, 19 |
      16, 3, 10, 20, 15, 18, 14, 13, 7, 11, 17, 12, 2, 8, 9, 5, 6, 19, 1, 4 |
      12, 15, 3, 13, 10, 1, 7, 19, 18, 17, 16, 14, 2, 11, 8, 5, 20, 6, 4, 9 |
      5, 11, 3, 7, 16, 8, 1, 12, 2, 10, 6, 9, 14, 13, 4, 15, 18, 19, 20, 17 |];
