n = 10;
m = 10;

d = [| 39, 47, 88, 32, 58, 2, 25, 39, 24, 31 |
     62, 90, 57, 26, 91, 80, 94, 15, 9, 35 |
     94, 85, 73, 58, 19, 59, 52, 67, 73, 51 |
     40, 24, 69, 10, 88, 66, 69, 78, 99, 48 |
     45, 61, 91, 35, 53, 10, 87, 22, 92, 95 |
     90, 83, 28, 20, 47, 43, 26, 21, 99, 83 |
     23, 84, 80, 8, 89, 38, 7, 81, 77, 68 |
     65, 83, 98, 88, 37, 82, 32, 77, 24, 30 |
     10, 62, 39, 84, 89, 98, 86, 98, 28, 61 |
     45, 63, 81, 97, 81, 84, 32, 28, 17, 52 |];

mc = [| 3, 1, 7, 10, 5, 6, 4, 8, 9, 2 |
      10, 4, 1, 9, 5, 7, 3, 6, 2, 8 |
      7, 2, 3, 5, 8, 6, 9, 10, 4, 1 |
      10, 6, 2, 4, 7, 8, 5, 1, 3, 9 |
      1, 6, 4, 2, 9, 10, 5, 3, 7, 8 |
      2, 7, 9, 6, 3, 10, 4, 5, 1, 8 |
      6, 3, 8, 4, 10, 9, 1, 7, 5, 2 |
      2, 1, 8, 5, 7, 9, 3, 4, 10, 6 |
      2, 8, 1, 3, 4, 7, 9, 10, 6, 5 |
      5, 2, 6, 3, 8, 9, 10, 1, 4, 7 |];
