n = 50;
m = 20;

d = [| 49, 3, 5, 71, 99, 16, 70, 74, 61, 60, 11, 45, 79, 32, 66, 26, 98, 91, 62, 3 |
     62, 95, 30, 8, 30, 63, 34, 84, 89, 20, 49, 43, 33, 8, 23, 67, 88, 96, 56, 93 |
     31, 19, 62, 30, 34, 8, 27, 1, 65, 94, 65, 71, 49, 47, 10, 46, 80, 49, 40, 83 |
     73, 73, 12, 22, 98, 15, 64, 28, 16, 76, 1, 25, 88, 71, 95, 9, 44, 35, 50, 79 |
     11, 38, 11, 26, 29, 32, 76, 43, 11, 98, 84, 7, 55, 38, 2, 81, 78, 80, 78, 15 |
     20, 93, 37, 55, 8, 25, 84, 9, 31, 80, 73, 67, 88, 34, 32, 46, 95, 69, 79, 46 |
     6, 81, 64, 40, 15, 1, 12, 7, 54, 39, 69, 47, 61, 47, 74, 30, 12, 57, 89, 13 |
     68, 96, 60, 24, 21, 81, 4, 41, 15, 40, 24, 35, 69, 45, 90, 87, 69, 70, 94, 14 |
     63, 46, 79, 22, 62, 19, 97, 45, 46, 84, 47, 93, 93, 75, 33, 44, 91, 94, 16, 36 |
     75, 48, 28, 75, 8, 46, 50, 92, 79, 69, 55, 91, 70, 92, 60, 90, 53, 60, 41, 21 |
     71, 75, 97, 70, 18, 2, 63, 58, 12, 40, 97, 40, 86, 16, 49, 47, 56, 28, 12, 87 |
     14, 96, 14, 87, 80, 80, 85, 73, 77, 94, 87, 37, 50, 89, 43, 60, 16, 48, 58, 88 |
     4, 99, 33, 40, 80, 38, 50, 55, 78, 20, 89, 71, 59, 50, 91, 25, 3, 94, 34, 43 |
     59, 74, 80, 85, 6, 62, 54, 60, 74, 84, 31, 79, 80, 96, 89, 28, 65, 44, 51, 21 |
     81, 17, 94, 73, 76, 17, 68, 97, 58, 1, 25, 33, 91, 64, 34, 55, 10, 47, 75, 10 |
     96, 48, 67, 24, 68, 95, 38, 66, 90, 13, 43, 17, 83, 51, 6, 94, 15, 71, 62, 21 |
     82, 90, 22, 61, 28, 6, 29, 7, 73, 53, 66, 64, 61, 11, 44, 61, 29, 46, 48, 29 |
     50, 51, 6, 87, 60, 98, 71, 82, 87, 54, 73, 51, 1, 65, 66, 40, 38, 52, 49, 77 |
     48, 24, 75, 25, 95, 89, 23, 90, 78, 83, 72, 62, 31, 14, 55, 37, 16, 28, 3, 11 |
     7, 90, 20, 55, 40, 24, 35, 92, 14, 84, 53, 42, 83, 74, 34, 69, 70, 54, 79, 10 |
     57, 58, 54, 52, 92, 2, 50, 69, 85, 1, 27, 9, 5, 13, 47, 65, 9, 76, 48, 32 |
     96, 93, 94, 6, 42, 95, 72, 10, 6, 22, 95, 59, 73, 11, 94, 55, 40, 23, 19, 88 |
     44, 75, 59, 90, 36, 35, 52, 6, 9, 29, 68, 49, 16, 60, 70, 77, 46, 71, 41, 32 |
     45, 58, 54, 81, 91, 7, 72, 40, 56, 22, 60, 31, 90, 76, 13, 65, 34, 77, 59, 41 |
     13, 76, 70, 88, 11, 55, 6, 19, 45, 95, 75, 54, 6, 71, 60, 96, 83, 74, 99, 6 |
     49, 90, 29, 84, 94, 71, 64, 59, 13, 39, 17, 64, 99, 96, 83, 66, 81, 45, 63, 80 |
     49, 33, 98, 99, 73, 49, 65, 17, 24, 62, 83, 76, 91, 72, 14, 64, 63, 4, 14, 66 |
     44, 54, 31, 45, 18, 83, 63, 48, 88, 39, 43, 95, 62, 73, 66, 92, 73, 27, 33, 83 |
     85, 75, 9, 60, 14, 91, 84, 82, 38, 30, 12, 57, 80, 29, 68, 89, 71, 85, 21, 89 |
     81, 25, 14, 30, 43, 97, 60, 41, 93, 87, 9, 69, 47, 90, 3, 25, 40, 41, 81, 73 |
     9, 55, 54, 22, 18, 53, 45, 59, 7, 84, 43, 56, 52, 92, 39, 5, 90, 87, 67, 56 |
     50, 31, 39, 52, 47, 96, 29, 97, 33, 56, 32, 78, 7, 24, 71, 84, 76, 18, 43, 93 |
     25, 1, 47, 39, 59, 56, 53, 86, 99, 10, 70, 81, 90, 38, 2, 77, 8, 93, 31, 62 |
     13, 49, 80, 35, 88, 90, 79, 91, 32, 75, 63, 77, 2, 17, 85, 41, 41, 56, 64, 84 |
     94, 65, 77, 21, 62, 47, 93, 2, 65, 35, 53, 20, 5, 15, 64, 52, 68, 93, 38, 83 |
     81, 79, 39, 25, 45, 68, 47, 13, 74, 17, 69, 80, 49, 8, 41, 48, 81, 16, 37, 87 |
     37, 56, 85, 32, 22, 83, 52, 29, 69, 25, 95, 10, 97, 13, 5, 85, 85, 63, 65, 27 |
     56, 38, 41, 29, 10, 89, 51, 50, 98, 46, 47, 96, 95, 10, 66, 31, 95, 84, 40, 77 |
     6, 89, 1, 38, 27, 6, 52, 81, 36, 10, 87, 74, 5, 30, 44, 59, 51, 43, 59, 19 |
     57, 49, 31, 42, 77, 19, 62, 74, 99, 92, 78, 54, 5, 61, 24, 44, 60, 65, 82, 77 |
     76, 30, 29, 93, 1, 68, 39, 7, 52, 80, 72, 22, 71, 14, 90, 15, 93, 36, 69, 90 |
     20, 86, 59, 34, 34, 74, 88, 99, 97, 66, 58, 83, 58, 63, 92, 50, 36, 89, 67, 98 |
     1, 12, 98, 43, 55, 58, 96, 44, 20, 91, 53, 4, 10, 34, 99, 75, 58, 54, 29, 5 |
     6, 74, 74, 80, 72, 40, 84, 48, 46, 26, 92, 66, 95, 45, 59, 2, 50, 31, 55, 41 |
     88, 20, 30, 38, 80, 28, 67, 63, 75, 58, 26, 56, 56, 58, 50, 98, 6, 57, 57, 62 |
     64, 29, 89, 98, 60, 74, 92, 90, 32, 30, 35, 87, 95, 40, 38, 17, 78, 52, 18, 78 |
     89, 45, 75, 1, 87, 61, 96, 5, 17, 33, 20, 68, 32, 56, 46, 99, 46, 35, 74, 72 |
     13, 59, 96, 24, 72, 4, 58, 49, 93, 62, 15, 15, 51, 29, 51, 45, 6, 63, 78, 8 |
     51, 9, 84, 75, 9, 9, 62, 64, 37, 69, 59, 20, 61, 22, 91, 33, 77, 76, 20, 93 |
     43, 43, 53, 50, 35, 78, 45, 12, 3, 40, 18, 17, 62, 51, 42, 33, 58, 30, 86, 18 |];

mc = [| 14, 3, 1, 11, 5, 4, 19, 6, 9, 16, 12, 7, 2, 15, 8, 13, 18, 20, 17, 10 |
      13, 11, 17, 5, 12, 3, 16, 6, 14, 18, 2, 4, 19, 1, 9, 7, 20, 8, 15, 10 |
      17, 15, 14, 4, 7, 6, 11, 2, 18, 16, 10, 19, 9, 5, 20, 3, 8, 12, 13, 1 |
      17, 16, 18, 19, 15, 3, 1, 2, 9, 8, 14, 12, 6, 13, 7, 11, 5, 10, 4, 20 |
      15, 1, 8, 9, 10, 12, 18, 5, 3, 19, 6, 20, 4, 7, 13, 2, 17, 16, 14, 11 |
      17, 18, 14, 6, 4, 2, 1, 16, 3, 10, 13, 8, 5, 15, 7, 20, 12, 19, 11, 9 |
      13, 5, 7, 4, 10, 16, 11, 20, 6, 2, 14, 19, 17, 18, 3, 9, 12, 8, 15, 1 |
      8, 17, 18, 9, 13, 5, 7, 11, 10, 1, 16, 19, 3, 2, 12, 6, 15, 4, 20, 14 |
      18, 4, 13, 3, 5, 10, 16, 1, 17, 11, 6, 12, 8, 9, 14, 20, 19, 15, 7, 2 |
      1, 3, 9, 20, 16, 18, 2, 6, 8, 11, 7, 12, 15, 10, 14, 4, 19, 13, 5, 17 |
      3, 6, 20, 7, 4, 9, 5, 1, 2, 15, 19, 8, 12, 10, 11, 18, 17, 13, 16, 14 |
      20, 13, 6, 5, 3, 15, 4, 10, 17, 16, 14, 11, 7, 19, 1, 2, 18, 8, 12, 9 |
      18, 17, 2, 9, 15, 1, 10, 19, 4, 20, 12, 13, 6, 5, 16, 3, 11, 8, 7, 14 |
      4, 10, 2, 14, 15, 19, 13, 3, 9, 5, 7, 8, 16, 12, 20, 6, 18, 17, 1, 11 |
      7, 16, 17, 5, 3, 9, 13, 12, 18, 14, 1, 20, 10, 19, 2, 8, 11, 4, 6, 15 |
      10, 2, 13, 17, 19, 8, 7, 12, 20, 16, 4, 6, 3, 9, 1, 5, 14, 15, 18, 11 |
      11, 20, 1, 12, 4, 9, 10, 17, 5, 14, 13, 7, 19, 18, 2, 15, 3, 8, 16, 6 |
      7, 2, 9, 20, 3, 6, 4, 13, 5, 12, 8, 17, 1, 15, 16, 19, 18, 14, 11, 10 |
      16, 10, 5, 17, 13, 15, 20, 11, 9, 12, 14, 3, 4, 19, 7, 6, 1, 2, 8, 18 |
      3, 10, 16, 2, 9, 14, 5, 17, 18, 1, 13, 12, 4, 8, 6, 11, 7, 19, 15, 20 |
      3, 13, 14, 20, 10, 8, 19, 7, 11, 2, 9, 18, 16, 17, 6, 12, 5, 15, 1, 4 |
      5, 18, 10, 16, 4, 12, 6, 15, 19, 9, 2, 11, 14, 17, 20, 3, 8, 1, 7, 13 |
      2, 15, 18, 6, 9, 14, 4, 3, 5, 12, 11, 10, 8, 19, 7, 1, 13, 16, 17, 20 |
      14, 3, 16, 1, 9, 6, 19, 4, 12, 8, 15, 7, 17, 20, 10, 2, 18, 11, 13, 5 |
      1, 17, 19, 3, 16, 10, 14, 9, 12, 2, 15, 20, 7, 4, 18, 11, 5, 8, 6, 13 |
      18, 4, 8, 2, 16, 10, 19, 6, 7, 14, 5, 1, 13, 15, 11, 17, 12, 20, 9, 3 |
      14, 8, 18, 9, 11, 16, 5, 19, 6, 10, 7, 12, 17, 1, 20, 4, 2, 3, 15, 13 |
      19, 9, 4, 17, 14, 13, 5, 6, 18, 8, 10, 12, 2, 1, 20, 11, 7, 3, 16, 15 |
      16, 11, 3, 17, 9, 20, 13, 4, 14, 8, 10, 12, 7, 18, 19, 2, 6, 1, 5, 15 |
      17, 16, 8, 14, 18, 9, 13, 2, 1, 6, 20, 5, 7, 3, 12, 10, 4, 11, 15, 19 |
      6, 14, 1, 4, 5, 12, 13, 15, 9, 20, 18, 16, 19, 2, 8, 10, 3, 17, 7, 11 |
      7, 2, 12, 13, 20, 16, 18, 6, 8, 5, 14, 9, 1, 11, 19, 10, 3, 4, 17, 15 |
      14, 19, 6, 10, 9, 2, 15, 4, 20, 13, 11, 3, 7, 1, 12, 18, 16, 5, 8, 17 |
      15, 3, 7, 10, 19, 14, 20, 17, 5, 1, 4, 12, 11, 2, 16, 8, 13, 6, 9, 18 |
      17, 18, 7, 3, 2, 11, 8, 10, 13, 14, 15, 4, 20, 16, 9, 1, 19, 6, 5, 12 |
      11, 4, 5, 9, 19, 8, 20, 3, 10, 12, 18, 13, 17, 2, 1, 16, 7, 14, 6, 15 |
      19, 18, 7, 2, 17, 3, 1, 14, 11, 15, 8, 9, 4, 5, 20, 6, 16, 13, 10, 12 |
      4, 15, 19, 9, 18, 7, 13, 20, 11, 5, 17, 6, 14, 2, 8, 12, 3, 10, 16, 1 |
      3, 20, 16, 1, 11, 6, 19, 4, 15, 8, 7, 12, 5, 14, 18, 2, 9, 17, 13, 10 |
      11, 4, 16, 10, 6, 5, 13, 3, 17, 8, 7, 9, 14, 20, 2, 12, 15, 18, 19, 1 |
      11, 14, 10, 2, 16, 12, 13, 6, 9, 19, 3, 18, 8, 17, 1, 5, 20, 7, 15, 4 |
      18, 10, 20, 13, 5, 14, 19, 8, 3, 12, 15, 9, 4, 1, 6, 16, 11, 7, 17, 2 |
      16, 10, 1, 8, 20, 3, 9, 18, 15, 17, 7, 11, 13, 5, 14, 4, 19, 2, 12, 6 |
      13, 12, 3, 16, 15, 9, 7, 10, 8, 14, 20, 5, 4, 19, 11, 1, 18, 17, 6, 2 |
      7, 20, 4, 3, 10, 17, 15, 8, 1, 16, 14, 12, 19, 13, 18, 6, 11, 5, 9, 2 |
      16, 19, 9, 18, 12, 4, 15, 8, 6, 1, 5, 14, 10, 3, 7, 2, 20, 11, 17, 13 |
      4, 13, 14, 8, 11, 7, 12, 1, 19, 2, 17, 3, 10, 15, 16, 5, 9, 20, 6, 18 |
      19, 9, 17, 14, 6, 12, 15, 16, 20, 11, 7, 8, 2, 1, 3, 5, 10, 13, 18, 4 |
      12, 5, 8, 2, 19, 14, 15, 4, 16, 18, 3, 9, 1, 17, 20, 13, 10, 11, 7, 6 |
      17, 15, 20, 6, 18, 12, 4, 9, 14, 5, 11, 2, 19, 10, 13, 16, 3, 8, 1, 7 |];
