n = 30;
m = 15;

d = [| 57, 57, 37, 61, 73, 56, 33, 80, 45, 77, 20, 29, 20, 41, 91 |
     43, 5, 87, 20, 62, 38, 28, 31, 84, 19, 65, 7, 95, 26, 67 |
     10, 57, 17, 54, 37, 51, 13, 27, 80, 22, 38, 37, 22, 57, 41 |
     60, 43, 2, 45, 6, 10, 72, 58, 75, 90, 27, 73, 2, 98, 37 |
     68, 71, 18, 96, 80, 52, 46, 35, 64, 37, 64, 76, 11, 1, 89 |
     73, 82, 27, 22, 56, 93, 6, 22, 54, 7, 79, 39, 87, 1, 49 |
     81, 22, 22, 46, 99, 10, 14, 54, 95, 76, 96, 5, 31, 25, 19 |
     11, 57, 54, 42, 27, 97, 54, 96, 62, 24, 51, 82, 54, 17, 13 |
     44, 18, 66, 99, 3, 76, 67, 94, 79, 99, 67, 92, 45, 99, 24 |
     8, 38, 46, 94, 33, 13, 54, 22, 4, 23, 57, 46, 76, 20, 90 |
     50, 25, 91, 75, 74, 12, 33, 76, 29, 38, 18, 96, 85, 22, 82 |
     78, 58, 86, 86, 58, 45, 69, 2, 65, 87, 1, 35, 89, 23, 40 |
     48, 56, 24, 67, 54, 48, 90, 52, 45, 41, 45, 83, 6, 95, 96 |
     74, 36, 93, 52, 3, 85, 83, 54, 33, 80, 24, 19, 41, 91, 95 |
     92, 75, 57, 59, 48, 62, 31, 85, 66, 32, 1, 22, 71, 56, 19 |
     42, 28, 32, 66, 80, 33, 52, 25, 18, 40, 4, 42, 61, 59, 76 |
     51, 50, 88, 26, 64, 1, 98, 81, 11, 35, 25, 40, 6, 76, 88 |
     72, 33, 14, 46, 31, 38, 28, 23, 99, 56, 73, 75, 67, 84, 50 |
     68, 23, 12, 90, 44, 84, 46, 48, 58, 43, 67, 16, 86, 89, 45 |
     58, 28, 93, 37, 40, 61, 97, 8, 59, 21, 58, 50, 26, 60, 85 |
     92, 63, 64, 6, 19, 94, 41, 9, 73, 80, 49, 95, 3, 77, 41 |
     41, 58, 1, 86, 81, 6, 5, 49, 40, 39, 43, 76, 25, 25, 35 |
     9, 65, 55, 35, 84, 11, 89, 26, 75, 80, 35, 29, 57, 68, 90 |
     91, 88, 66, 17, 65, 42, 1, 84, 90, 95, 78, 82, 78, 33, 44 |
     58, 2, 31, 10, 83, 26, 18, 15, 25, 3, 73, 25, 70, 47, 45 |
     56, 84, 48, 77, 70, 73, 65, 8, 27, 21, 49, 41, 21, 62, 8 |
     71, 75, 8, 76, 63, 60, 18, 1, 57, 36, 16, 70, 84, 17, 95 |
     43, 98, 66, 62, 15, 54, 48, 31, 7, 4, 91, 23, 37, 14, 46 |
     65, 84, 69, 74, 2, 19, 37, 34, 55, 57, 94, 91, 28, 36, 55 |
     38, 27, 25, 20, 46, 89, 5, 83, 36, 59, 33, 89, 85, 10, 51 |];

mc = [| 3, 12, 6, 9, 7, 2, 1, 10, 8, 15, 14, 11, 13, 5, 4 |
      7, 6, 4, 13, 9, 1, 11, 2, 5, 12, 10, 3, 15, 8, 14 |
      8, 4, 15, 5, 9, 3, 12, 10, 11, 6, 1, 13, 7, 14, 2 |
      11, 5, 15, 8, 10, 4, 3, 9, 6, 12, 2, 14, 13, 7, 1 |
      6, 1, 4, 7, 11, 2, 10, 12, 9, 13, 15, 8, 5, 3, 14 |
      7, 2, 13, 3, 9, 8, 5, 6, 1, 10, 15, 4, 14, 11, 12 |
      13, 2, 9, 12, 10, 7, 1, 11, 3, 14, 5, 15, 8, 4, 6 |
      2, 13, 15, 14, 1, 12, 8, 9, 5, 4, 11, 3, 6, 10, 7 |
      6, 3, 1, 9, 4, 13, 12, 5, 8, 2, 15, 11, 7, 14, 10 |
      11, 5, 13, 2, 1, 6, 8, 9, 15, 3, 7, 10, 14, 4, 12 |
      15, 7, 6, 10, 8, 12, 9, 3, 11, 4, 13, 5, 2, 14, 1 |
      3, 11, 1, 8, 10, 7, 9, 5, 13, 6, 15, 14, 2, 4, 12 |
      15, 1, 10, 12, 11, 2, 7, 3, 4, 6, 8, 14, 13, 5, 9 |
      2, 9, 6, 1, 15, 4, 10, 13, 5, 3, 11, 7, 12, 8, 14 |
      5, 1, 13, 12, 14, 4, 8, 10, 9, 7, 3, 11, 2, 6, 15 |
      14, 10, 12, 1, 2, 9, 7, 13, 8, 11, 4, 5, 15, 6, 3 |
      3, 1, 2, 13, 5, 8, 15, 12, 4, 14, 6, 7, 11, 9, 10 |
      9, 15, 7, 6, 5, 13, 4, 8, 11, 12, 3, 10, 1, 2, 14 |
      2, 11, 15, 6, 13, 3, 1, 10, 14, 8, 9, 5, 4, 12, 7 |
      5, 8, 15, 9, 10, 12, 2, 1, 14, 6, 13, 11, 4, 3, 7 |
      5, 2, 4, 8, 10, 3, 1, 14, 15, 6, 11, 13, 12, 7, 9 |
      14, 5, 4, 12, 9, 15, 13, 6, 10, 7, 1, 11, 3, 8, 2 |
      3, 5, 10, 2, 1, 6, 11, 12, 9, 13, 14, 4, 7, 15, 8 |
      5, 9, 11, 13, 7, 15, 8, 14, 2, 3, 12, 1, 6, 4, 10 |
      10, 12, 3, 13, 6, 7, 15, 5, 8, 9, 2, 1, 11, 4, 14 |
      13, 15, 7, 8, 6, 1, 9, 4, 12, 5, 14, 10, 11, 3, 2 |
      10, 6, 1, 9, 11, 14, 15, 12, 5, 8, 2, 7, 13, 4, 3 |
      15, 2, 11, 3, 1, 6, 13, 10, 4, 5, 12, 14, 9, 7, 8 |
      13, 10, 2, 8, 15, 7, 6, 12, 11, 1, 14, 9, 5, 3, 4 |
      14, 4, 9, 6, 8, 12, 15, 2, 7, 3, 10, 11, 1, 13, 5 |];
