n = 20;
m = 20;

d = [| 54, 56, 77, 72, 23, 38, 77, 9, 21, 99, 77, 91, 39, 3, 57, 15, 60, 88, 10, 47 |
     31, 45, 2, 11, 94, 85, 12, 95, 53, 15, 86, 89, 81, 28, 53, 25, 63, 71, 86, 88 |
     18, 72, 92, 40, 62, 17, 57, 56, 72, 13, 83, 83, 77, 88, 19, 41, 47, 71, 45, 47 |
     17, 66, 13, 69, 7, 22, 75, 3, 97, 96, 75, 83, 89, 97, 98, 57, 55, 81, 12, 56 |
     90, 90, 79, 93, 28, 98, 33, 50, 91, 57, 16, 72, 43, 7, 87, 65, 8, 67, 12, 78 |
     89, 57, 76, 91, 78, 62, 96, 52, 72, 34, 13, 17, 24, 53, 19, 6, 93, 61, 12, 31 |
     90, 10, 16, 69, 63, 4, 41, 59, 28, 17, 21, 10, 7, 60, 77, 80, 58, 13, 57, 89 |
     17, 23, 46, 74, 65, 95, 36, 95, 2, 15, 78, 63, 27, 43, 76, 17, 47, 43, 26, 80 |
     19, 81, 93, 69, 46, 21, 8, 35, 51, 83, 79, 33, 80, 76, 24, 78, 60, 99, 80, 56 |
     82, 40, 7, 69, 17, 11, 35, 46, 3, 69, 77, 5, 89, 30, 81, 52, 13, 85, 77, 68 |
     34, 74, 29, 93, 82, 92, 17, 92, 45, 21, 3, 57, 74, 23, 89, 75, 46, 73, 83, 48 |
     12, 62, 2, 99, 43, 39, 49, 57, 78, 62, 6, 26, 97, 55, 89, 37, 9, 72, 3, 34 |
     68, 94, 46, 74, 7, 49, 47, 88, 77, 83, 98, 49, 27, 63, 76, 10, 45, 57, 29, 74 |
     95, 22, 89, 77, 32, 35, 39, 25, 39, 50, 91, 73, 50, 10, 60, 46, 84, 19, 84, 85 |
     97, 77, 80, 61, 89, 28, 24, 75, 17, 68, 40, 64, 41, 32, 66, 23, 56, 16, 79, 1 |
     87, 32, 23, 15, 90, 17, 17, 2, 99, 45, 5, 66, 39, 9, 54, 33, 14, 79, 79, 11 |
     30, 72, 14, 52, 11, 84, 94, 14, 26, 75, 72, 16, 28, 91, 70, 87, 67, 93, 92, 99 |
     91, 28, 67, 51, 46, 60, 73, 94, 36, 14, 61, 9, 77, 2, 38, 48, 74, 69, 31, 90 |
     74, 76, 69, 7, 16, 30, 60, 27, 23, 54, 96, 94, 71, 88, 47, 63, 99, 12, 30, 85 |
     57, 89, 89, 88, 48, 5, 91, 70, 93, 11, 32, 45, 56, 36, 67, 99, 53, 35, 67, 84 |];

mc = [| 19, 17, 4, 16, 14, 2, 8, 6, 18, 5, 7, 20, 10, 13, 1, 3, 12, 9, 11, 15 |
      5, 16, 18, 2, 1, 4, 20, 7, 3, 13, 12, 15, 6, 19, 14, 9, 10, 8, 11, 17 |
      4, 11, 2, 16, 8, 7, 5, 17, 15, 14, 12, 13, 6, 1, 19, 18, 10, 3, 20, 9 |
      18, 11, 16, 10, 17, 4, 15, 13, 1, 3, 14, 2, 12, 6, 5, 19, 7, 8, 20, 9 |
      3, 9, 5, 7, 8, 2, 6, 4, 10, 15, 13, 17, 11, 18, 19, 1, 20, 14, 16, 12 |
      17, 1, 19, 9, 8, 2, 11, 13, 18, 15, 16, 12, 7, 5, 14, 20, 3, 10, 4, 6 |
      13, 9, 5, 18, 7, 11, 6, 10, 3, 8, 15, 4, 17, 12, 19, 16, 2, 1, 14, 20 |
      6, 12, 7, 17, 14, 20, 16, 5, 18, 15, 19, 3, 2, 4, 1, 13, 10, 11, 8, 9 |
      7, 6, 13, 1, 15, 4, 14, 11, 3, 12, 19, 10, 17, 9, 20, 16, 5, 8, 2, 18 |
      9, 4, 8, 11, 16, 13, 15, 2, 10, 18, 14, 7, 17, 12, 19, 3, 1, 6, 20, 5 |
      10, 13, 2, 19, 16, 15, 9, 8, 11, 12, 20, 1, 6, 3, 17, 4, 7, 14, 5, 18 |
      7, 9, 3, 16, 12, 1, 20, 13, 4, 15, 6, 10, 17, 18, 11, 8, 14, 19, 2, 5 |
      1, 12, 14, 10, 9, 11, 13, 16, 2, 6, 18, 17, 19, 3, 5, 7, 8, 20, 4, 15 |
      13, 5, 9, 11, 20, 15, 17, 7, 14, 6, 16, 1, 18, 12, 4, 2, 3, 19, 8, 10 |
      12, 18, 11, 15, 4, 9, 16, 10, 20, 19, 8, 5, 17, 1, 14, 7, 13, 3, 2, 6 |
      1, 2, 10, 6, 7, 14, 16, 12, 19, 3, 18, 17, 13, 20, 15, 4, 8, 5, 9, 11 |
      8, 3, 11, 2, 14, 5, 18, 19, 16, 4, 6, 1, 10, 7, 17, 9, 13, 12, 20, 15 |
      20, 13, 16, 18, 17, 6, 3, 2, 8, 1, 4, 12, 14, 7, 10, 15, 11, 9, 19, 5 |
      19, 15, 14, 6, 18, 7, 17, 8, 5, 11, 1, 13, 16, 10, 2, 3, 12, 9, 4, 20 |
      15, 7, 10, 5, 2, 4, 8, 6, 13, 20, 11, 18, 19, 12, 17, 14, 3, 16, 1, 9 |];
