n = 20;
m = 20;

d = [| 78, 1, 54, 68, 6, 45, 30, 30, 77, 96, 12, 50, 97, 9, 24, 25, 45, 99, 68, 62 |
     70, 32, 23, 59, 64, 27, 8, 90, 34, 63, 80, 99, 12, 55, 43, 18, 74, 25, 57, 58 |
     95, 78, 39, 69, 77, 99, 42, 12, 81, 92, 85, 14, 88, 54, 40, 22, 87, 17, 82, 59 |
     11, 65, 77, 3, 41, 27, 42, 10, 69, 39, 96, 28, 10, 6, 76, 27, 12, 27, 88, 87 |
     86, 99, 28, 31, 24, 81, 90, 10, 62, 34, 21, 67, 88, 36, 18, 34, 20, 42, 38, 44 |
     60, 60, 39, 12, 59, 97, 68, 5, 4, 1, 71, 17, 60, 70, 31, 54, 55, 32, 6, 69 |
     99, 49, 10, 17, 50, 57, 34, 90, 63, 16, 80, 84, 71, 60, 82, 98, 89, 60, 73, 94 |
     36, 11, 32, 95, 58, 60, 85, 66, 85, 15, 52, 13, 13, 78, 86, 83, 15, 9, 30, 93 |
     48, 14, 72, 45, 44, 30, 15, 62, 63, 25, 52, 95, 88, 35, 68, 37, 39, 36, 92, 73 |
     22, 77, 81, 93, 69, 51, 28, 34, 5, 44, 35, 85, 30, 70, 27, 51, 32, 84, 7, 82 |
     63, 1, 54, 12, 86, 27, 30, 24, 91, 35, 38, 18, 27, 34, 63, 4, 9, 4, 29, 16 |
     18, 72, 83, 38, 14, 7, 60, 88, 56, 46, 52, 45, 5, 51, 76, 13, 28, 89, 80, 60 |
     73, 30, 45, 76, 59, 15, 54, 48, 64, 94, 10, 47, 47, 95, 94, 15, 31, 64, 61, 26 |
     52, 98, 9, 6, 30, 69, 89, 62, 28, 4, 94, 82, 85, 45, 47, 10, 54, 46, 44, 77 |
     30, 50, 81, 68, 5, 29, 89, 37, 7, 26, 55, 21, 60, 68, 46, 7, 69, 96, 36, 73 |
     96, 99, 28, 68, 61, 55, 1, 31, 39, 32, 94, 3, 16, 92, 42, 82, 86, 22, 76, 64 |
     19, 38, 3, 65, 27, 10, 92, 41, 33, 54, 95, 77, 20, 17, 15, 32, 1, 88, 28, 2 |
     75, 87, 46, 52, 60, 98, 17, 53, 31, 92, 97, 22, 73, 81, 10, 73, 57, 56, 94, 17 |
     34, 64, 51, 37, 69, 63, 85, 47, 10, 59, 64, 54, 71, 86, 52, 92, 44, 67, 93, 3 |
     50, 71, 15, 43, 40, 35, 89, 91, 98, 31, 7, 84, 19, 74, 12, 71, 47, 82, 15, 81 |];

mc = [| 14, 3, 11, 1, 10, 20, 6, 18, 16, 7, 13, 2, 8, 15, 9, 17, 4, 5, 12, 19 |
      13, 7, 10, 17, 14, 1, 6, 11, 2, 5, 8, 15, 12, 19, 9, 18, 4, 20, 3, 16 |
      13, 10, 20, 6, 8, 3, 16, 17, 5, 12, 19, 18, 15, 7, 11, 14, 2, 1, 4, 9 |
      6, 10, 3, 14, 2, 15, 13, 19, 9, 1, 8, 16, 20, 5, 7, 18, 11, 12, 4, 17 |
      12, 5, 3, 17, 19, 1, 9, 15, 13, 18, 16, 8, 2, 4, 14, 10, 11, 20, 6, 7 |
      9, 19, 17, 1, 15, 2, 13, 12, 18, 3, 10, 6, 11, 7, 4, 5, 8, 20, 14, 16 |
      5, 16, 9, 14, 15, 10, 17, 7, 2, 3, 18, 12, 19, 6, 11, 8, 20, 4, 13, 1 |
      9, 17, 5, 13, 14, 6, 19, 16, 11, 12, 8, 3, 1, 15, 10, 4, 18, 7, 20, 2 |
      18, 4, 16, 6, 9, 20, 15, 7, 10, 17, 14, 11, 3, 13, 12, 8, 2, 19, 5, 1 |
      6, 8, 13, 1, 14, 20, 12, 16, 3, 19, 18, 9, 10, 5, 17, 15, 4, 7, 2, 11 |
      7, 14, 5, 2, 18, 13, 11, 19, 16, 3, 15, 1, 10, 17, 4, 20, 6, 9, 12, 8 |
      6, 16, 13, 18, 3, 10, 7, 20, 11, 1, 2, 17, 12, 9, 5, 19, 4, 8, 15, 14 |
      8, 10, 5, 12, 4, 17, 18, 1, 11, 14, 15, 20, 7, 2, 13, 3, 9, 16, 19, 6 |
      18, 5, 14, 11, 12, 15, 20, 16, 13, 8, 3, 6, 7, 4, 17, 9, 2, 1, 10, 19 |
      1, 7, 14, 3, 4, 9, 5, 6, 8, 19, 2, 20, 15, 13, 16, 18, 10, 17, 11, 12 |
      19, 1, 20, 14, 9, 5, 2, 13, 4, 18, 8, 12, 16, 10, 6, 11, 3, 7, 15, 17 |
      12, 15, 3, 8, 5, 2, 14, 19, 1, 11, 10, 7, 6, 13, 9, 18, 20, 17, 4, 16 |
      2, 18, 5, 13, 1, 19, 8, 16, 10, 15, 3, 20, 11, 9, 6, 17, 14, 7, 12, 4 |
      18, 14, 12, 20, 11, 13, 17, 15, 1, 16, 10, 19, 3, 8, 7, 2, 9, 6, 5, 4 |
      6, 12, 4, 7, 14, 17, 10, 19, 20, 3, 18, 15, 13, 5, 1, 2, 16, 11, 9, 8 |];
