n = 15;
m = 8;

d = [| 21, 21, 85, 49, 33, 7, 87, 17 |
     93, 47, 54, 55, 58, 60, 53, 43 |
     73, 2, 44, 37, 69, 79, 65, 6 |
     64, 79, 2, 43, 18, 76, 48, 35 |
     4, 24, 12, 54, 35, 93, 91, 9 |
     51, 80, 47, 73, 29, 40, 95, 45 |
     67, 38, 86, 42, 34, 57, 7, 27 |
     76, 27, 70, 39, 53, 38, 25, 20 |
     47, 2, 21, 48, 42, 53, 41, 93 |
     39, 91, 14, 75, 84, 13, 76, 86 |
     1, 72, 16, 85, 21, 56, 56, 55 |
     92, 71, 70, 51, 59, 36, 62, 32 |
     27, 11, 97, 81, 34, 63, 40, 36 |
     12, 54, 68, 17, 47, 44, 13, 74 |
     55, 87, 83, 98, 32, 3, 12, 36 |];

mc = [| 1, 2, 5, 3, 7, 8, 4, 6 |
      7, 2, 1, 8, 4, 5, 3, 6 |
      5, 4, 1, 3, 2, 7, 8, 6 |
      1, 3, 2, 5, 6, 4, 7, 8 |
      6, 3, 5, 7, 4, 2, 1, 8 |
      5, 3, 6, 4, 1, 2, 7, 8 |
      7, 3, 8, 5, 2, 6, 1, 4 |
      4, 1, 7, 6, 2, 8, 5, 3 |
      8, 4, 1, 3, 2, 7, 5, 6 |
      5, 3, 2, 7, 1, 6, 8, 4 |
      2, 5, 6, 7, 8, 4, 1, 3 |
      5, 1, 6, 7, 4, 3, 8, 2 |
      3, 4, 2, 1, 7, 8, 5, 6 |
      5, 3, 4, 2, 8, 7, 6, 1 |
      7, 6, 5, 8, 4, 1, 3, 2 |];
