n = 30;
m = 20;

d = [| 21, 69, 21, 67, 78, 54, 72, 52, 86, 17, 10, 9, 86, 6, 45, 81, 59, 74, 35, 4 |
     68, 34, 75, 45, 64, 92, 86, 85, 67, 85, 14, 81, 81, 65, 85, 11, 48, 31, 87, 4 |
     80, 86, 29, 70, 55, 78, 17, 6, 62, 88, 83, 45, 27, 21, 71, 88, 31, 61, 23, 41 |
     39, 78, 98, 17, 26, 84, 82, 17, 59, 6, 76, 70, 92, 94, 22, 42, 95, 9, 38, 98 |
     11, 37, 31, 18, 38, 24, 95, 22, 45, 24, 43, 4, 5, 96, 90, 34, 42, 81, 84, 91 |
     81, 21, 15, 23, 78, 63, 79, 48, 22, 90, 43, 14, 95, 31, 66, 61, 74, 92, 52, 24 |
     49, 2, 89, 12, 67, 43, 71, 22, 62, 76, 97, 45, 28, 55, 74, 15, 63, 99, 88, 18 |
     80, 82, 36, 63, 97, 46, 74, 3, 48, 92, 96, 76, 97, 4, 94, 38, 37, 65, 87, 62 |
     41, 96, 35, 48, 51, 74, 19, 82, 45, 13, 33, 82, 26, 34, 99, 87, 75, 50, 59, 18 |
     17, 82, 69, 33, 79, 54, 4, 2, 94, 61, 79, 46, 52, 58, 1, 8, 95, 5, 69, 85 |
     33, 52, 16, 46, 98, 23, 91, 95, 39, 91, 30, 58, 34, 41, 54, 73, 43, 53, 73, 98 |
     33, 6, 93, 57, 89, 89, 77, 73, 97, 76, 6, 99, 68, 4, 8, 47, 11, 35, 54, 59 |
     45, 15, 63, 34, 33, 22, 13, 24, 98, 85, 96, 93, 21, 17, 28, 84, 35, 95, 91, 51 |
     6, 46, 84, 38, 42, 49, 5, 60, 93, 58, 12, 51, 63, 83, 48, 33, 91, 94, 90, 79 |
     1, 64, 93, 16, 61, 77, 95, 98, 24, 9, 70, 77, 64, 90, 80, 40, 4, 26, 75, 51 |
     71, 56, 64, 52, 65, 92, 49, 57, 55, 31, 63, 51, 23, 78, 52, 56, 68, 90, 71, 61 |
     9, 4, 83, 85, 87, 37, 66, 68, 36, 31, 86, 22, 54, 87, 77, 3, 85, 64, 25, 49 |
     42, 49, 83, 11, 22, 37, 6, 59, 60, 42, 29, 83, 61, 98, 69, 78, 43, 27, 38, 37 |
     45, 62, 15, 95, 56, 32, 72, 77, 12, 30, 48, 54, 36, 53, 21, 29, 50, 48, 52, 71 |
     59, 62, 10, 90, 30, 3, 17, 60, 72, 77, 39, 29, 65, 7, 10, 72, 49, 16, 8, 94 |
     4, 35, 74, 61, 15, 41, 39, 37, 89, 78, 38, 76, 85, 51, 54, 82, 84, 63, 11, 44 |
     8, 78, 10, 73, 1, 60, 87, 14, 76, 19, 76, 83, 55, 36, 37, 35, 52, 97, 91, 26 |
     15, 18, 17, 47, 54, 7, 40, 67, 30, 99, 86, 96, 51, 38, 20, 49, 6, 49, 41, 96 |
     40, 71, 37, 58, 8, 41, 66, 42, 29, 65, 33, 47, 36, 55, 73, 84, 81, 67, 99, 13 |
     35, 72, 86, 16, 25, 5, 63, 98, 38, 43, 76, 87, 19, 15, 40, 32, 22, 6, 13, 25 |
     94, 46, 54, 51, 14, 53, 46, 85, 34, 85, 13, 19, 25, 6, 39, 55, 18, 78, 1, 89 |
     8, 98, 2, 87, 25, 45, 11, 86, 51, 99, 20, 54, 9, 42, 35, 16, 40, 31, 71, 99 |
     62, 61, 44, 20, 63, 45, 37, 81, 48, 65, 66, 3, 17, 43, 57, 5, 32, 76, 82, 4 |
     67, 10, 65, 34, 43, 36, 74, 79, 91, 86, 1, 40, 36, 92, 80, 84, 13, 66, 37, 5 |
     56, 78, 1, 4, 88, 96, 38, 80, 18, 80, 74, 31, 4, 53, 9, 98, 95, 81, 40, 94 |];

mc = [| 13, 2, 3, 15, 16, 7, 8, 14, 18, 19, 9, 4, 11, 12, 5, 17, 20, 10, 1, 6 |
      7, 8, 16, 20, 4, 2, 13, 3, 12, 10, 6, 11, 18, 14, 19, 1, 15, 5, 9, 17 |
      16, 10, 3, 2, 7, 12, 19, 18, 13, 1, 8, 5, 15, 4, 14, 20, 6, 9, 17, 11 |
      9, 19, 3, 11, 4, 10, 20, 7, 8, 14, 18, 5, 13, 15, 16, 1, 6, 12, 17, 2 |
      12, 20, 7, 1, 11, 15, 19, 5, 2, 9, 4, 6, 18, 10, 17, 16, 3, 8, 13, 14 |
      12, 6, 13, 7, 2, 9, 1, 11, 16, 3, 14, 19, 18, 8, 4, 15, 17, 5, 20, 10 |
      14, 10, 8, 9, 1, 19, 3, 13, 18, 17, 4, 5, 11, 12, 16, 2, 6, 15, 7, 20 |
      9, 14, 10, 18, 5, 8, 20, 6, 12, 15, 4, 7, 17, 11, 13, 16, 19, 3, 1, 2 |
      2, 20, 19, 6, 11, 9, 13, 7, 16, 10, 8, 15, 3, 1, 18, 17, 14, 4, 12, 5 |
      6, 11, 20, 4, 5, 10, 13, 7, 17, 18, 8, 15, 3, 16, 2, 12, 14, 1, 19, 9 |
      13, 15, 10, 6, 9, 7, 17, 11, 4, 5, 3, 8, 18, 2, 14, 1, 16, 19, 20, 12 |
      3, 19, 2, 10, 8, 20, 14, 13, 12, 16, 4, 9, 15, 6, 18, 5, 11, 7, 1, 17 |
      7, 5, 19, 2, 11, 10, 20, 9, 4, 14, 18, 8, 6, 1, 13, 3, 12, 15, 17, 16 |
      17, 16, 5, 14, 3, 15, 2, 19, 7, 8, 9, 20, 12, 6, 4, 10, 13, 18, 1, 11 |
      17, 11, 5, 6, 14, 1, 8, 18, 15, 7, 10, 16, 4, 12, 13, 9, 3, 19, 20, 2 |
      2, 14, 12, 3, 13, 11, 1, 20, 19, 6, 16, 5, 9, 18, 7, 10, 15, 4, 8, 17 |
      5, 2, 11, 10, 3, 18, 13, 9, 15, 8, 19, 14, 6, 4, 17, 12, 20, 7, 1, 16 |
      10, 19, 3, 11, 14, 13, 1, 17, 9, 16, 6, 4, 5, 20, 12, 2, 15, 8, 18, 7 |
      2, 14, 16, 4, 17, 15, 8, 19, 1, 9, 13, 20, 10, 11, 3, 6, 7, 5, 12, 18 |
      6, 11, 2, 18, 15, 14, 17, 10, 16, 12, 5, 8, 4, 19, 7, 1, 9, 20, 3, 13 |
      5, 14, 18, 16, 20, 12, 17, 11, 1, 10, 3, 19, 15, 6, 9, 4, 13, 2, 8, 7 |
      10, 2, 18, 5, 15, 8, 13, 19, 1, 16, 7, 12, 9, 11, 4, 20, 14, 17, 3, 6 |
      3, 7, 2, 11, 16, 6, 15, 18, 19, 20, 10, 4, 12, 5, 14, 9, 8, 1, 17, 13 |
      16, 9, 18, 17, 8, 6, 2, 5, 12, 14, 1, 20, 7, 11, 15, 3, 10, 4, 19, 13 |
      17, 7, 13, 16, 1, 8, 20, 2, 15, 9, 4, 3, 10, 11, 5, 12, 6, 18, 19, 14 |
      16, 13, 12, 11, 19, 1, 6, 14, 4, 3, 18, 20, 9, 17, 2, 8, 10, 7, 5, 15 |
      16, 18, 5, 15, 20, 10, 11, 8, 14, 3, 2, 13, 4, 9, 12, 1, 17, 6, 19, 7 |
      6, 17, 12, 20, 9, 4, 7, 1, 2, 13, 3, 8, 19, 14, 16, 15, 10, 5, 11, 18 |
      8, 4, 2, 18, 13, 19, 11, 7, 15, 5, 12, 6, 9, 17, 20, 10, 3, 16, 1, 14 |
      3, 7, 17, 12, 8, 15, 19, 5, 16, 1, 4, 13, 9, 10, 18, 11, 6, 20, 2, 14 |];
