n = 10;
m = 10;

d = [| 16, 95, 18, 40, 68, 23, 93, 97, 10, 28 |
     99, 67, 76, 64, 22, 60, 58, 4, 25, 50 |
     17, 28, 55, 82, 69, 78, 30, 25, 19, 16 |
     79, 36, 75, 70, 25, 88, 77, 42, 56, 44 |
     10, 69, 25, 50, 95, 75, 85, 76, 85, 41 |
     35, 18, 2, 89, 13, 57, 2, 47, 21, 7 |
     38, 79, 14, 18, 26, 26, 5, 66, 97, 53 |
     42, 43, 20, 84, 66, 15, 48, 13, 22, 34 |
     56, 23, 30, 19, 27, 86, 61, 27, 50, 3 |
     55, 86, 72, 36, 1, 85, 94, 45, 51, 58 |];

mc = [| 10, 2, 5, 1, 6, 7, 3, 4, 8, 9 |
      7, 8, 4, 6, 5, 9, 2, 10, 3, 1 |
      3, 9, 10, 8, 6, 1, 2, 7, 4, 5 |
      7, 3, 6, 4, 8, 5, 10, 1, 9, 2 |
      5, 1, 9, 4, 3, 10, 6, 7, 8, 2 |
      9, 1, 10, 4, 7, 3, 8, 2, 6, 5 |
      1, 2, 8, 7, 10, 9, 6, 5, 4, 3 |
      1, 10, 3, 7, 6, 2, 5, 8, 4, 9 |
      6, 4, 8, 1, 10, 3, 2, 7, 9, 5 |
      7, 9, 3, 10, 4, 1, 6, 8, 5, 2 |];
