n = 20;
m = 15;

d = [| 3, 93, 72, 81, 30, 64, 51, 51, 69, 72, 94, 89, 6, 99, 95 |
     90, 72, 27, 35, 22, 70, 53, 41, 20, 97, 58, 21, 84, 67, 47 |
     68, 10, 74, 42, 94, 50, 70, 78, 3, 82, 69, 37, 11, 3, 56 |
     47, 29, 67, 98, 6, 16, 75, 74, 98, 83, 80, 15, 72, 2, 22 |
     90, 90, 8, 22, 60, 71, 16, 96, 18, 92, 48, 43, 59, 77, 54 |
     97, 7, 62, 51, 16, 79, 58, 55, 2, 15, 10, 15, 40, 79, 87 |
     81, 55, 30, 18, 46, 6, 32, 66, 79, 29, 26, 3, 20, 34, 49 |
     11, 40, 88, 85, 66, 40, 23, 93, 70, 25, 88, 44, 14, 95, 91 |
     32, 57, 31, 98, 96, 68, 39, 89, 41, 55, 65, 74, 89, 95, 29 |
     25, 29, 15, 14, 9, 82, 18, 83, 59, 15, 37, 9, 14, 17, 59 |
     10, 24, 79, 3, 79, 15, 92, 89, 31, 40, 62, 81, 48, 49, 75 |
     86, 14, 74, 70, 83, 99, 92, 43, 85, 70, 14, 11, 2, 3, 39 |
     51, 81, 25, 28, 70, 55, 65, 63, 88, 31, 71, 25, 83, 71, 99 |
     81, 21, 96, 3, 2, 34, 88, 7, 89, 39, 80, 25, 53, 14, 47 |
     51, 55, 82, 79, 95, 21, 47, 77, 46, 18, 85, 58, 13, 76, 24 |
     39, 97, 16, 94, 71, 72, 65, 25, 52, 15, 17, 80, 53, 47, 1 |
     13, 16, 6, 78, 93, 55, 34, 86, 77, 76, 89, 81, 2, 15, 14 |
     93, 98, 78, 62, 98, 11, 1, 62, 67, 84, 67, 83, 42, 11, 55 |
     7, 9, 92, 86, 48, 54, 26, 24, 78, 34, 72, 39, 56, 50, 90 |
     68, 86, 60, 80, 64, 98, 35, 35, 81, 48, 15, 26, 24, 74, 96 |];

mc = [| 15, 12, 10, 3, 9, 2, 14, 7, 11, 5, 13, 6, 4, 1, 8 |
      6, 15, 5, 13, 8, 11, 2, 7, 10, 3, 14, 1, 12, 4, 9 |
      7, 12, 14, 8, 9, 11, 5, 1, 4, 10, 2, 3, 13, 6, 15 |
      11, 6, 14, 4, 5, 15, 7, 10, 9, 13, 2, 1, 8, 3, 12 |
      4, 10, 13, 15, 14, 11, 9, 8, 3, 2, 12, 5, 6, 7, 1 |
      1, 5, 15, 13, 2, 3, 4, 9, 10, 14, 7, 12, 6, 8, 11 |
      14, 4, 9, 2, 13, 8, 10, 7, 6, 12, 1, 11, 15, 5, 3 |
      6, 14, 1, 9, 15, 4, 12, 11, 10, 7, 5, 13, 2, 8, 3 |
      7, 4, 12, 6, 8, 10, 3, 9, 13, 14, 1, 15, 5, 2, 11 |
      4, 3, 12, 13, 2, 14, 6, 5, 7, 10, 1, 11, 15, 9, 8 |
      10, 11, 7, 12, 15, 2, 5, 8, 14, 4, 9, 13, 3, 6, 1 |
      3, 6, 12, 7, 5, 15, 2, 11, 8, 14, 10, 4, 13, 9, 1 |
      8, 11, 12, 2, 7, 14, 9, 3, 6, 1, 5, 10, 15, 4, 13 |
      12, 9, 2, 6, 4, 14, 8, 10, 11, 3, 1, 15, 5, 7, 13 |
      13, 1, 11, 3, 4, 15, 12, 8, 14, 7, 5, 9, 6, 10, 2 |
      6, 13, 12, 5, 2, 7, 9, 11, 15, 8, 1, 3, 4, 10, 14 |
      10, 12, 15, 6, 8, 11, 3, 1, 5, 13, 2, 9, 7, 14, 4 |
      5, 2, 14, 6, 13, 9, 8, 3, 1, 10, 7, 12, 4, 11, 15 |
      10, 4, 1, 11, 15, 5, 3, 2, 12, 13, 9, 6, 7, 14, 8 |
      6, 3, 13, 10, 12, 11, 15, 7, 5, 8, 14, 1, 9, 4, 2 |];
