n = 20;
m = 20;

d = [| 16, 75, 76, 30, 77, 22, 30, 39, 13, 95, 2, 25, 24, 99, 9, 97, 45, 79, 7, 72 |
     44, 20, 1, 9, 41, 87, 71, 82, 39, 64, 41, 29, 57, 87, 42, 40, 41, 79, 36, 79 |
     61, 91, 49, 88, 80, 21, 82, 5, 2, 49, 28, 7, 12, 92, 9, 25, 43, 86, 80, 95 |
     15, 5, 43, 27, 53, 1, 86, 75, 27, 82, 62, 36, 5, 71, 49, 52, 56, 96, 48, 73 |
     92, 36, 79, 77, 73, 69, 79, 7, 45, 52, 39, 15, 53, 39, 51, 44, 84, 55, 71, 44 |
     81, 74, 99, 27, 56, 51, 67, 98, 90, 55, 79, 5, 8, 58, 63, 37, 73, 78, 88, 99 |
     92, 25, 67, 82, 23, 74, 29, 28, 16, 66, 47, 19, 7, 93, 9, 57, 68, 65, 88, 98 |
     67, 51, 50, 42, 82, 28, 13, 17, 39, 48, 87, 76, 92, 41, 26, 8, 38, 7, 12, 85 |
     1, 4, 49, 90, 40, 54, 72, 39, 30, 11, 66, 51, 30, 11, 46, 35, 42, 92, 58, 11 |
     6, 25, 41, 1, 38, 59, 6, 58, 91, 21, 5, 20, 54, 10, 55, 47, 80, 22, 70, 52 |
     53, 1, 5, 91, 59, 38, 15, 68, 57, 41, 20, 63, 48, 71, 68, 62, 48, 78, 59, 34 |
     56, 32, 67, 76, 97, 81, 97, 48, 7, 61, 26, 73, 21, 59, 86, 59, 8, 55, 61, 41 |
     28, 45, 26, 54, 42, 63, 86, 41, 13, 14, 79, 1, 14, 9, 51, 14, 39, 73, 78, 23 |
     63, 51, 84, 48, 97, 30, 84, 69, 65, 68, 99, 20, 97, 76, 44, 43, 95, 12, 80, 76 |
     15, 63, 6, 32, 29, 17, 8, 26, 60, 19, 81, 28, 99, 61, 40, 6, 13, 42, 72, 72 |
     11, 92, 80, 11, 29, 23, 85, 51, 50, 61, 31, 56, 74, 86, 58, 77, 46, 38, 34, 65 |
     99, 87, 28, 57, 25, 90, 17, 31, 74, 32, 64, 6, 99, 99, 84, 92, 72, 12, 87, 11 |
     86, 46, 92, 19, 67, 97, 79, 16, 38, 96, 63, 44, 11, 55, 14, 36, 84, 79, 47, 81 |
     19, 57, 92, 49, 13, 93, 54, 48, 62, 39, 81, 96, 2, 32, 90, 61, 51, 23, 28, 4 |
     2, 87, 31, 88, 70, 32, 2, 22, 14, 25, 11, 38, 92, 65, 87, 71, 57, 54, 79, 20 |];

mc = [| 17, 14, 12, 9, 3, 13, 20, 16, 1, 5, 15, 8, 10, 18, 4, 11, 2, 6, 19, 7 |
      14, 2, 20, 16, 1, 18, 5, 17, 7, 3, 8, 9, 4, 13, 19, 15, 6, 11, 10, 12 |
      3, 14, 20, 18, 19, 17, 4, 2, 10, 9, 11, 15, 13, 12, 8, 6, 7, 16, 5, 1 |
      19, 13, 8, 17, 1, 20, 16, 18, 10, 4, 11, 15, 2, 5, 9, 6, 12, 7, 14, 3 |
      15, 2, 17, 7, 20, 12, 13, 3, 8, 14, 5, 11, 6, 19, 1, 18, 16, 4, 9, 10 |
      4, 19, 20, 16, 9, 1, 6, 8, 11, 2, 17, 12, 14, 5, 3, 18, 15, 13, 10, 7 |
      13, 8, 3, 10, 16, 17, 6, 15, 4, 12, 11, 2, 7, 14, 20, 19, 18, 1, 5, 9 |
      2, 7, 3, 10, 1, 12, 14, 15, 18, 6, 4, 20, 17, 13, 9, 19, 5, 11, 8, 16 |
      18, 20, 10, 3, 12, 8, 11, 19, 14, 4, 5, 15, 2, 16, 7, 13, 6, 1, 17, 9 |
      17, 8, 5, 20, 9, 13, 15, 6, 10, 1, 19, 16, 2, 14, 7, 4, 3, 12, 11, 18 |
      12, 8, 4, 16, 14, 2, 1, 10, 5, 19, 15, 3, 17, 9, 6, 18, 11, 13, 20, 7 |
      3, 19, 8, 7, 6, 16, 10, 17, 11, 13, 2, 4, 5, 14, 15, 18, 12, 20, 1, 9 |
      8, 9, 11, 10, 6, 13, 19, 18, 4, 12, 15, 1, 2, 3, 20, 17, 16, 5, 7, 14 |
      18, 20, 11, 13, 10, 1, 7, 2, 14, 4, 8, 19, 12, 5, 16, 9, 6, 17, 15, 3 |
      11, 16, 5, 2, 19, 13, 8, 15, 3, 18, 7, 4, 14, 17, 6, 1, 12, 20, 10, 9 |
      9, 18, 2, 8, 5, 13, 17, 11, 15, 20, 6, 16, 1, 4, 14, 19, 10, 7, 12, 3 |
      10, 9, 2, 11, 14, 19, 13, 20, 17, 12, 18, 4, 3, 5, 15, 6, 7, 1, 16, 8 |
      13, 16, 12, 4, 5, 1, 6, 17, 20, 3, 19, 18, 2, 9, 10, 7, 11, 14, 15, 8 |
      6, 15, 2, 16, 8, 4, 18, 12, 20, 14, 7, 13, 19, 5, 17, 9, 1, 10, 11, 3 |
      4, 11, 1, 8, 10, 18, 17, 6, 15, 19, 9, 2, 12, 20, 3, 5, 16, 13, 14, 7 |];
