n = 20;
m = 20;

d = [| 68, 2, 77, 85, 80, 84, 21, 75, 47, 41, 50, 74, 67, 73, 85, 69, 81, 79, 93, 46 |
     38, 67, 97, 21, 47, 47, 6, 8, 15, 51, 31, 21, 10, 19, 69, 59, 38, 87, 83, 70 |
     70, 17, 40, 1, 67, 28, 13, 95, 75, 69, 82, 40, 56, 87, 75, 84, 10, 66, 80, 81 |
     70, 68, 73, 43, 52, 56, 24, 34, 63, 49, 75, 76, 27, 42, 79, 3, 26, 44, 84, 9 |
     12, 93, 75, 72, 24, 33, 93, 52, 78, 81, 6, 9, 70, 71, 43, 67, 3, 81, 94, 39 |
     87, 53, 70, 36, 62, 3, 50, 89, 77, 9, 53, 16, 84, 70, 16, 54, 1, 99, 9, 97 |
     32, 26, 94, 76, 16, 96, 63, 98, 89, 26, 59, 84, 10, 78, 80, 27, 96, 74, 73, 6 |
     65, 7, 54, 69, 14, 55, 12, 76, 38, 57, 6, 33, 54, 83, 32, 27, 84, 39, 58, 65 |
     22, 34, 24, 74, 52, 52, 56, 11, 62, 59, 13, 14, 65, 74, 68, 73, 55, 81, 50, 72 |
     4, 20, 65, 25, 77, 67, 76, 3, 56, 34, 86, 37, 93, 87, 77, 13, 8, 56, 61, 50 |
     75, 36, 86, 70, 41, 6, 10, 40, 24, 40, 57, 15, 88, 41, 53, 78, 4, 20, 84, 55 |
     28, 38, 72, 33, 33, 19, 48, 17, 84, 23, 16, 27, 69, 59, 21, 59, 36, 54, 3, 78 |
     62, 88, 66, 10, 31, 49, 10, 13, 88, 59, 80, 81, 21, 30, 79, 23, 15, 4, 59, 94 |
     54, 86, 25, 8, 67, 74, 94, 43, 32, 40, 54, 68, 50, 80, 83, 31, 6, 40, 18, 80 |
     3, 9, 80, 14, 66, 78, 40, 18, 7, 80, 94, 8, 82, 93, 45, 13, 65, 34, 94, 71 |
     49, 92, 93, 35, 23, 56, 48, 65, 64, 61, 31, 7, 66, 68, 90, 56, 51, 21, 72, 92 |
     20, 85, 79, 60, 64, 20, 91, 67, 99, 34, 96, 92, 80, 94, 66, 91, 36, 40, 99, 98 |
     1, 83, 53, 94, 72, 45, 58, 22, 4, 20, 24, 97, 64, 73, 73, 39, 32, 70, 57, 88 |
     70, 77, 83, 51, 85, 70, 30, 14, 58, 59, 17, 67, 45, 92, 48, 55, 7, 59, 60, 81 |
     70, 25, 79, 31, 99, 47, 62, 46, 40, 62, 60, 2, 25, 75, 20, 5, 3, 28, 3, 51 |];

mc = [| 6, 1, 10, 18, 12, 20, 15, 9, 3, 19, 16, 5, 17, 2, 13, 4, 11, 7, 14, 8 |
      2, 9, 7, 18, 11, 1, 4, 19, 6, 16, 5, 17, 20, 14, 12, 13, 10, 8, 3, 15 |
      19, 16, 4, 15, 14, 6, 20, 5, 13, 9, 3, 1, 18, 7, 11, 12, 17, 10, 2, 8 |
      19, 6, 5, 10, 18, 14, 11, 9, 3, 15, 16, 13, 4, 7, 1, 8, 20, 12, 17, 2 |
      4, 2, 6, 17, 3, 8, 14, 1, 13, 16, 18, 20, 12, 7, 5, 9, 10, 19, 15, 11 |
      5, 11, 12, 1, 14, 10, 2, 3, 15, 9, 17, 7, 16, 6, 19, 20, 18, 13, 8, 4 |
      18, 13, 19, 6, 17, 7, 3, 8, 5, 4, 9, 15, 14, 12, 1, 11, 16, 10, 2, 20 |
      9, 6, 2, 11, 17, 7, 14, 19, 1, 20, 8, 12, 15, 10, 13, 3, 4, 5, 16, 18 |
      20, 9, 16, 4, 1, 13, 8, 5, 12, 3, 11, 10, 15, 19, 6, 18, 14, 17, 2, 7 |
      11, 18, 6, 2, 16, 5, 10, 20, 8, 14, 7, 15, 19, 1, 4, 13, 9, 3, 17, 12 |
      14, 9, 6, 13, 17, 2, 20, 1, 12, 3, 19, 7, 15, 10, 5, 4, 8, 11, 16, 18 |
      3, 4, 16, 15, 19, 12, 14, 8, 9, 18, 6, 11, 10, 1, 2, 20, 17, 5, 13, 7 |
      5, 4, 1, 9, 7, 17, 3, 13, 14, 18, 12, 2, 11, 10, 15, 16, 20, 6, 8, 19 |
      7, 3, 17, 8, 16, 2, 5, 18, 1, 4, 15, 12, 19, 11, 20, 9, 14, 10, 6, 13 |
      5, 2, 8, 14, 9, 12, 13, 20, 4, 1, 19, 18, 3, 17, 7, 10, 6, 15, 16, 11 |
      4, 5, 18, 17, 19, 14, 20, 9, 15, 3, 12, 10, 13, 1, 11, 8, 7, 6, 2, 16 |
      5, 12, 16, 8, 3, 4, 20, 18, 19, 2, 15, 1, 17, 10, 11, 6, 14, 13, 7, 9 |
      13, 19, 7, 3, 17, 6, 11, 20, 9, 2, 8, 14, 10, 1, 18, 4, 12, 5, 16, 15 |
      17, 6, 16, 15, 8, 10, 13, 9, 1, 2, 19, 18, 12, 5, 20, 4, 3, 14, 7, 11 |
      2, 4, 16, 6, 19, 12, 7, 11, 8, 15, 9, 20, 1, 17, 18, 10, 5, 3, 14, 13 |];
