n = 50;
m = 20;

d = [| 11, 83, 19, 49, 77, 44, 85, 63, 51, 13, 71, 23, 3, 89, 31, 86, 15, 20, 49, 62 |
     76, 19, 34, 94, 80, 29, 59, 11, 87, 73, 93, 27, 15, 99, 47, 43, 92, 46, 84, 97 |
     6, 82, 35, 78, 16, 11, 74, 83, 5, 5, 10, 15, 22, 67, 16, 51, 49, 15, 95, 72 |
     67, 24, 19, 94, 44, 21, 58, 55, 64, 53, 17, 61, 25, 98, 48, 14, 48, 4, 49, 35 |
     56, 75, 2, 13, 79, 29, 67, 8, 55, 62, 91, 66, 12, 67, 97, 71, 20, 68, 95, 44 |
     44, 52, 10, 46, 68, 48, 82, 7, 40, 54, 31, 20, 36, 41, 84, 71, 97, 11, 59, 36 |
     15, 16, 19, 89, 56, 79, 78, 3, 19, 21, 2, 25, 42, 49, 30, 34, 97, 64, 51, 38 |
     15, 64, 93, 19, 95, 47, 87, 57, 88, 37, 91, 77, 22, 33, 26, 67, 36, 51, 5, 46 |
     42, 6, 15, 60, 21, 75, 70, 80, 30, 29, 66, 32, 3, 3, 52, 49, 75, 31, 91, 33 |
     80, 21, 95, 2, 39, 30, 23, 32, 85, 72, 46, 29, 41, 39, 41, 89, 65, 92, 41, 89 |
     65, 32, 54, 90, 9, 83, 15, 30, 46, 43, 93, 80, 43, 10, 77, 45, 65, 18, 34, 85 |
     61, 65, 8, 1, 27, 34, 71, 14, 75, 55, 19, 55, 73, 12, 81, 98, 50, 71, 95, 48 |
     36, 86, 21, 32, 55, 31, 63, 73, 71, 78, 18, 22, 95, 35, 76, 41, 64, 44, 85, 69 |
     56, 17, 59, 21, 43, 72, 13, 66, 18, 80, 91, 31, 73, 54, 33, 67, 64, 96, 24, 83 |
     9, 23, 21, 81, 20, 7, 96, 41, 11, 39, 5, 45, 64, 68, 55, 51, 83, 98, 49, 81 |
     65, 22, 67, 73, 92, 26, 19, 90, 41, 87, 22, 78, 74, 82, 27, 51, 24, 51, 46, 55 |
     1, 68, 45, 13, 76, 76, 94, 65, 88, 22, 37, 43, 54, 4, 25, 35, 33, 99, 71, 28 |
     18, 2, 20, 32, 91, 74, 75, 61, 30, 69, 50, 68, 22, 87, 12, 12, 46, 76, 34, 77 |
     33, 39, 29, 64, 65, 18, 94, 84, 24, 87, 31, 82, 53, 59, 26, 78, 84, 51, 85, 1 |
     49, 94, 15, 24, 52, 20, 81, 38, 52, 49, 32, 62, 6, 61, 60, 79, 74, 73, 13, 71 |
     79, 25, 22, 75, 74, 54, 27, 47, 77, 73, 30, 24, 85, 71, 98, 39, 2, 24, 23, 2 |
     29, 92, 45, 85, 65, 69, 82, 60, 71, 43, 52, 36, 93, 66, 30, 38, 61, 14, 83, 31 |
     2, 32, 46, 41, 45, 91, 32, 10, 96, 29, 57, 34, 71, 2, 60, 42, 27, 17, 57, 33 |
     32, 42, 61, 6, 80, 85, 71, 79, 69, 63, 55, 4, 9, 81, 75, 44, 10, 12, 72, 20 |
     29, 65, 98, 91, 67, 95, 55, 58, 52, 17, 31, 38, 2, 67, 48, 1, 83, 69, 57, 53 |
     61, 32, 55, 17, 81, 73, 56, 46, 43, 43, 77, 16, 58, 36, 80, 53, 56, 95, 67, 27 |
     90, 54, 77, 6, 74, 72, 20, 7, 87, 54, 84, 94, 88, 18, 86, 29, 55, 99, 18, 70 |
     40, 45, 40, 14, 7, 53, 55, 69, 6, 24, 41, 91, 59, 76, 28, 27, 8, 28, 14, 27 |
     97, 98, 29, 56, 65, 91, 10, 86, 78, 46, 68, 24, 66, 15, 10, 15, 53, 49, 67, 71 |
     1, 9, 4, 34, 51, 87, 35, 42, 1, 15, 23, 38, 90, 89, 48, 1, 9, 71, 37, 74 |
     85, 20, 58, 14, 27, 6, 72, 94, 4, 56, 94, 99, 86, 90, 92, 52, 79, 45, 24, 98 |
     71, 56, 78, 14, 76, 56, 22, 54, 9, 91, 35, 30, 51, 74, 72, 32, 13, 13, 47, 22 |
     7, 52, 18, 44, 11, 77, 46, 52, 25, 95, 71, 79, 54, 70, 23, 57, 24, 94, 2, 90 |
     46, 68, 29, 17, 28, 57, 46, 12, 82, 21, 82, 32, 82, 93, 30, 48, 19, 55, 85, 52 |
     27, 8, 57, 49, 56, 57, 12, 45, 51, 81, 39, 97, 8, 24, 87, 25, 84, 5, 58, 2 |
     21, 77, 74, 63, 7, 72, 50, 61, 55, 75, 64, 29, 57, 52, 8, 5, 39, 92, 54, 98 |
     69, 32, 15, 81, 65, 8, 45, 82, 75, 78, 47, 31, 5, 66, 26, 6, 6, 70, 77, 21 |
     57, 22, 3, 83, 1, 40, 87, 46, 73, 78, 95, 51, 64, 86, 27, 22, 82, 27, 44, 79 |
     42, 99, 87, 33, 3, 45, 91, 27, 20, 69, 78, 33, 96, 11, 33, 94, 5, 75, 50, 55 |
     52, 7, 43, 56, 42, 26, 93, 34, 5, 29, 89, 90, 22, 43, 81, 74, 91, 8, 15, 98 |
     64, 16, 40, 21, 72, 13, 19, 38, 6, 25, 22, 9, 12, 17, 50, 53, 73, 26, 7, 13 |
     36, 13, 57, 28, 46, 70, 8, 16, 65, 43, 63, 51, 88, 4, 67, 43, 2, 50, 66, 80 |
     82, 93, 72, 55, 13, 72, 85, 48, 10, 61, 47, 19, 66, 71, 64, 6, 15, 83, 18, 90 |
     77, 49, 38, 33, 47, 37, 39, 99, 98, 52, 48, 82, 50, 75, 15, 19, 45, 53, 48, 65 |
     13, 20, 97, 65, 40, 14, 9, 91, 56, 25, 82, 15, 84, 81, 1, 59, 93, 77, 7, 17 |
     14, 79, 66, 41, 22, 75, 15, 72, 43, 62, 64, 82, 63, 50, 13, 67, 58, 24, 33, 91 |
     74, 54, 34, 22, 16, 11, 9, 97, 88, 17, 83, 72, 49, 69, 74, 23, 16, 29, 63, 84 |
     77, 50, 58, 81, 41, 82, 86, 13, 95, 93, 27, 18, 48, 76, 61, 72, 38, 7, 90, 63 |
     23, 6, 57, 63, 21, 37, 39, 67, 86, 45, 7, 91, 49, 46, 66, 29, 92, 72, 3, 75 |
     59, 92, 17, 65, 80, 21, 92, 39, 4, 97, 71, 85, 34, 55, 29, 79, 3, 35, 55, 65 |];

mc = [| 9, 20, 3, 6, 8, 13, 5, 7, 4, 15, 10, 1, 16, 11, 12, 17, 14, 19, 18, 2 |
      4, 8, 16, 19, 5, 7, 6, 15, 14, 11, 9, 12, 18, 20, 2, 17, 10, 3, 1, 13 |
      1, 5, 10, 3, 7, 9, 12, 6, 11, 8, 20, 2, 16, 13, 19, 15, 4, 17, 14, 18 |
      19, 16, 10, 6, 15, 9, 17, 14, 1, 5, 3, 12, 4, 7, 8, 13, 20, 18, 11, 2 |
      7, 6, 9, 10, 5, 20, 3, 16, 19, 1, 2, 8, 14, 4, 17, 12, 13, 18, 11, 15 |
      4, 17, 7, 5, 3, 8, 1, 18, 9, 15, 6, 10, 19, 20, 13, 12, 11, 14, 2, 16 |
      18, 15, 20, 10, 8, 16, 5, 17, 4, 19, 11, 7, 13, 14, 12, 1, 9, 3, 6, 2 |
      15, 12, 3, 11, 7, 6, 4, 20, 13, 2, 5, 9, 14, 10, 17, 1, 18, 19, 16, 8 |
      11, 14, 10, 18, 16, 17, 15, 9, 1, 6, 8, 3, 5, 4, 20, 13, 12, 7, 2, 19 |
      19, 17, 6, 2, 18, 14, 13, 3, 8, 12, 16, 20, 7, 4, 10, 15, 5, 9, 1, 11 |
      11, 16, 18, 9, 12, 10, 3, 5, 19, 13, 2, 15, 20, 14, 1, 7, 17, 8, 6, 4 |
      14, 16, 10, 9, 12, 7, 20, 19, 3, 13, 5, 15, 8, 6, 17, 2, 1, 18, 11, 4 |
      12, 19, 6, 10, 4, 11, 14, 15, 13, 9, 2, 17, 16, 8, 5, 20, 18, 1, 7, 3 |
      11, 17, 15, 5, 9, 16, 12, 19, 1, 20, 4, 18, 2, 7, 13, 8, 14, 10, 3, 6 |
      13, 10, 11, 17, 20, 1, 14, 5, 6, 7, 18, 12, 2, 8, 9, 19, 3, 4, 15, 16 |
      6, 2, 20, 16, 13, 17, 19, 5, 10, 12, 1, 18, 8, 4, 9, 3, 11, 7, 15, 14 |
      8, 14, 7, 17, 16, 4, 1, 18, 15, 11, 12, 2, 19, 10, 3, 13, 5, 20, 6, 9 |
      6, 19, 13, 14, 10, 15, 1, 12, 9, 3, 16, 8, 7, 4, 2, 5, 20, 17, 18, 11 |
      9, 5, 11, 17, 4, 14, 3, 2, 19, 7, 18, 10, 6, 20, 8, 16, 15, 1, 13, 12 |
      17, 19, 16, 3, 18, 12, 20, 7, 15, 11, 13, 8, 1, 14, 5, 4, 9, 6, 2, 10 |
      16, 10, 18, 11, 4, 3, 14, 5, 12, 2, 20, 1, 9, 19, 13, 6, 8, 15, 7, 17 |
      19, 9, 8, 7, 12, 13, 4, 15, 14, 18, 17, 20, 2, 6, 5, 11, 16, 10, 3, 1 |
      12, 3, 6, 17, 2, 15, 20, 10, 11, 14, 13, 16, 7, 9, 8, 19, 1, 5, 18, 4 |
      10, 5, 6, 9, 11, 13, 19, 14, 17, 16, 3, 8, 2, 15, 1, 12, 7, 20, 4, 18 |
      18, 17, 8, 9, 1, 2, 20, 12, 14, 11, 3, 19, 7, 16, 15, 10, 4, 5, 6, 13 |
      13, 16, 12, 18, 2, 4, 15, 7, 20, 5, 14, 6, 9, 11, 17, 19, 8, 1, 10, 3 |
      2, 17, 13, 9, 16, 15, 4, 19, 14, 6, 7, 5, 11, 3, 12, 18, 8, 10, 1, 20 |
      2, 10, 16, 20, 1, 9, 6, 17, 15, 13, 5, 14, 3, 12, 4, 11, 18, 19, 8, 7 |
      18, 20, 12, 6, 4, 15, 5, 3, 10, 1, 19, 2, 14, 11, 13, 7, 16, 17, 9, 8 |
      7, 9, 6, 4, 15, 10, 20, 5, 3, 8, 16, 14, 12, 17, 2, 1, 19, 18, 11, 13 |
      18, 19, 2, 10, 5, 15, 6, 11, 14, 20, 4, 13, 12, 7, 16, 9, 1, 17, 8, 3 |
      7, 12, 10, 3, 15, 19, 1, 20, 18, 14, 11, 5, 9, 16, 13, 17, 6, 2, 8, 4 |
      14, 18, 10, 1, 6, 2, 3, 4, 13, 19, 20, 12, 9, 17, 7, 5, 8, 11, 16, 15 |
      8, 10, 16, 3, 4, 13, 20, 14, 18, 12, 15, 1, 9, 17, 19, 5, 11, 7, 2, 6 |
      17, 1, 7, 19, 5, 11, 8, 9, 2, 4, 3, 16, 13, 14, 12, 18, 20, 10, 6, 15 |
      14, 18, 12, 20, 4, 3, 15, 1, 8, 10, 17, 6, 2, 9, 19, 13, 11, 16, 7, 5 |
      19, 10, 17, 5, 15, 9, 11, 18, 13, 20, 4, 3, 2, 8, 6, 12, 16, 7, 14, 1 |
      18, 11, 12, 3, 2, 14, 8, 20, 13, 10, 4, 9, 7, 16, 15, 19, 5, 1, 17, 6 |
      15, 11, 19, 10, 6, 1, 3, 17, 12, 13, 5, 20, 7, 14, 4, 8, 18, 16, 2, 9 |
      16, 5, 6, 7, 4, 3, 18, 11, 1, 20, 8, 9, 17, 15, 2, 13, 10, 19, 14, 12 |
      18, 19, 17, 10, 9, 3, 8, 20, 15, 5, 2, 13, 6, 11, 1, 4, 16, 12, 7, 14 |
      7, 10, 2, 15, 20, 13, 5, 6, 19, 14, 8, 3, 4, 1, 9, 11, 16, 12, 17, 18 |
      11, 4, 10, 18, 12, 6, 5, 7, 16, 17, 8, 20, 19, 13, 2, 15, 14, 3, 9, 1 |
      20, 8, 5, 6, 19, 18, 13, 16, 17, 12, 4, 14, 11, 10, 7, 1, 2, 15, 9, 3 |
      1, 5, 19, 6, 7, 3, 4, 2, 20, 18, 10, 13, 9, 12, 15, 14, 11, 8, 17, 16 |
      2, 7, 16, 11, 19, 3, 13, 14, 20, 18, 15, 5, 8, 4, 6, 12, 17, 9, 1, 10 |
      4, 8, 7, 14, 1, 9, 19, 6, 12, 20, 18, 3, 15, 10, 17, 13, 2, 11, 5, 16 |
      18, 5, 1, 3, 10, 17, 13, 9, 2, 4, 6, 11, 14, 20, 16, 12, 19, 8, 15, 7 |
      7, 5, 16, 19, 14, 3, 2, 9, 4, 18, 1, 13, 10, 12, 8, 15, 11, 17, 20, 6 |
      11, 1, 7, 3, 19, 4, 20, 12, 13, 9, 6, 16, 10, 15, 2, 8, 17, 14, 5, 18 |];
