n = 20;
m = 15;

d = [| 79, 33, 72, 2, 46, 19, 48, 16, 71, 8, 71, 68, 30, 29, 97 |
     97, 18, 78, 74, 29, 53, 39, 92, 56, 26, 78, 80, 52, 44, 4 |
     35, 19, 3, 30, 26, 13, 87, 44, 27, 80, 22, 18, 51, 19, 79 |
     20, 87, 24, 21, 81, 12, 64, 57, 40, 48, 1, 98, 44, 55, 32 |
     36, 59, 23, 18, 81, 10, 60, 74, 91, 8, 63, 37, 47, 97, 92 |
     79, 89, 18, 98, 7, 81, 15, 99, 47, 19, 58, 38, 91, 74, 39 |
     81, 66, 35, 61, 7, 44, 74, 67, 46, 92, 97, 50, 97, 37, 72 |
     89, 49, 89, 75, 75, 18, 3, 18, 53, 88, 8, 15, 56, 37, 26 |
     86, 46, 59, 40, 23, 48, 68, 92, 22, 67, 28, 85, 32, 20, 78 |
     99, 89, 77, 70, 83, 5, 4, 55, 60, 25, 57, 53, 46, 62, 42 |
     82, 13, 2, 19, 96, 56, 62, 37, 91, 9, 2, 73, 28, 25, 22 |
     89, 20, 14, 4, 79, 88, 63, 33, 40, 12, 57, 61, 8, 42, 9 |
     47, 15, 81, 40, 58, 72, 35, 97, 69, 80, 29, 86, 36, 24, 41 |
     20, 3, 32, 96, 59, 58, 29, 60, 90, 36, 10, 24, 1, 78, 66 |
     64, 36, 33, 40, 86, 53, 49, 66, 30, 22, 16, 70, 73, 94, 34 |
     63, 4, 53, 14, 55, 64, 36, 20, 79, 33, 79, 83, 7, 12, 80 |
     39, 50, 54, 11, 68, 71, 3, 22, 66, 55, 3, 12, 89, 35, 79 |
     14, 36, 52, 80, 41, 3, 92, 86, 30, 50, 81, 31, 77, 13, 6 |
     36, 95, 95, 78, 40, 13, 41, 28, 24, 57, 56, 78, 48, 44, 47 |
     44, 26, 69, 3, 63, 42, 55, 82, 20, 9, 63, 48, 36, 73, 83 |];

mc = [| 15, 13, 11, 6, 4, 5, 1, 12, 8, 10, 3, 7, 2, 14, 9 |
      4, 14, 13, 2, 8, 11, 3, 6, 15, 9, 10, 12, 5, 1, 7 |
      12, 6, 2, 7, 10, 13, 14, 5, 15, 11, 8, 9, 1, 4, 3 |
      5, 13, 9, 12, 7, 14, 4, 6, 2, 10, 15, 1, 8, 11, 3 |
      11, 8, 7, 3, 5, 9, 15, 1, 10, 6, 12, 2, 13, 4, 14 |
      7, 5, 13, 1, 2, 10, 11, 3, 12, 14, 15, 9, 4, 6, 8 |
      14, 11, 7, 10, 12, 1, 15, 4, 6, 13, 2, 3, 5, 9, 8 |
      1, 2, 3, 4, 5, 12, 11, 14, 9, 7, 8, 10, 13, 6, 15 |
      6, 12, 3, 7, 13, 8, 2, 14, 5, 10, 9, 1, 15, 11, 4 |
      13, 4, 6, 14, 12, 2, 8, 9, 10, 1, 3, 11, 7, 15, 5 |
      2, 13, 1, 14, 10, 3, 6, 9, 15, 4, 11, 8, 5, 12, 7 |
      4, 9, 5, 11, 12, 15, 14, 2, 10, 13, 8, 6, 1, 7, 3 |
      3, 8, 7, 6, 10, 9, 11, 4, 1, 14, 5, 15, 12, 13, 2 |
      2, 11, 8, 14, 1, 15, 13, 5, 4, 6, 10, 12, 3, 9, 7 |
      6, 15, 2, 9, 13, 7, 4, 10, 5, 3, 8, 12, 14, 1, 11 |
      7, 3, 5, 4, 11, 2, 15, 10, 13, 1, 14, 12, 8, 6, 9 |
      12, 13, 3, 11, 14, 15, 5, 4, 8, 10, 1, 6, 7, 2, 9 |
      6, 3, 4, 14, 7, 11, 9, 2, 5, 12, 13, 8, 15, 10, 1 |
      3, 5, 8, 1, 13, 7, 4, 6, 12, 15, 14, 10, 2, 11, 9 |
      14, 8, 7, 10, 5, 6, 13, 9, 11, 4, 3, 15, 2, 12, 1 |];
