n = 10;
m = 10;

d = [| 8, 6, 54, 58, 96, 77, 76, 1, 22, 5 |
     33, 39, 29, 4, 91, 19, 37, 82, 84, 69 |
     61, 85, 41, 32, 50, 10, 9, 32, 75, 95 |
     41, 73, 63, 51, 1, 58, 37, 17, 44, 8 |
     82, 99, 19, 16, 71, 88, 70, 49, 37, 24 |
     31, 41, 58, 89, 12, 73, 87, 70, 60, 76 |
     18, 65, 53, 52, 95, 88, 19, 27, 49, 14 |
     90, 59, 9, 38, 89, 42, 79, 90, 90, 98 |
     65, 36, 48, 51, 82, 57, 6, 75, 20, 93 |
     44, 29, 53, 76, 92, 21, 32, 98, 32, 65 |];

mc = [| 7, 4, 9, 5, 6, 2, 3, 8, 10, 1 |
      7, 8, 2, 1, 10, 4, 5, 3, 9, 6 |
      2, 7, 1, 10, 3, 4, 8, 5, 6, 9 |
      8, 5, 4, 3, 6, 9, 7, 2, 1, 10 |
      9, 7, 2, 10, 1, 4, 5, 3, 8, 6 |
      2, 10, 3, 1, 5, 6, 9, 7, 8, 4 |
      9, 3, 4, 10, 8, 1, 6, 2, 7, 5 |
      5, 7, 6, 9, 10, 1, 4, 2, 8, 3 |
      1, 6, 10, 9, 4, 3, 5, 8, 7, 2 |
      4, 3, 6, 5, 9, 10, 7, 1, 8, 2 |];
