n = 30;
m = 20;

d = [| 40, 5, 12, 8, 75, 33, 69, 27, 72, 11, 53, 46, 2, 27, 28, 64, 85, 50, 90, 68 |
     65, 36, 9, 1, 98, 41, 13, 39, 20, 5, 88, 1, 64, 31, 29, 96, 52, 40, 16, 20 |
     61, 89, 15, 36, 43, 33, 70, 67, 70, 15, 5, 17, 43, 3, 57, 4, 51, 11, 59, 66 |
     41, 83, 65, 3, 48, 95, 81, 57, 96, 82, 6, 36, 83, 85, 17, 2, 35, 46, 15, 20 |
     92, 83, 76, 85, 57, 33, 73, 20, 11, 17, 89, 66, 22, 5, 37, 82, 51, 24, 98, 87 |
     49, 8, 4, 18, 40, 33, 36, 96, 82, 68, 89, 12, 80, 42, 78, 30, 20, 87, 46, 53 |
     1, 7, 61, 89, 11, 21, 84, 30, 85, 17, 34, 44, 49, 40, 60, 77, 51, 51, 24, 85 |
     52, 51, 21, 12, 29, 29, 96, 51, 75, 69, 26, 84, 97, 89, 37, 61, 54, 83, 62, 19 |
     73, 54, 24, 63, 72, 19, 46, 14, 39, 42, 39, 8, 55, 44, 15, 21, 32, 73, 74, 93 |
     41, 53, 77, 81, 28, 91, 1, 57, 38, 27, 31, 53, 6, 85, 8, 59, 10, 93, 57, 51 |
     9, 18, 89, 98, 37, 48, 66, 81, 24, 58, 17, 24, 53, 86, 32, 53, 6, 44, 68, 64 |
     50, 65, 45, 49, 10, 1, 90, 82, 94, 65, 70, 17, 88, 78, 5, 55, 86, 65, 35, 31 |
     27, 72, 15, 28, 25, 36, 79, 86, 33, 49, 38, 35, 29, 4, 37, 26, 77, 13, 1, 30 |
     6, 12, 51, 81, 24, 99, 15, 43, 71, 78, 7, 75, 42, 22, 7, 41, 71, 98, 95, 38 |
     54, 6, 58, 10, 15, 55, 34, 65, 39, 52, 42, 57, 19, 45, 2, 3, 34, 3, 25, 30 |
     53, 48, 60, 71, 59, 80, 87, 8, 39, 39, 86, 47, 8, 7, 32, 82, 25, 15, 90, 24 |
     29, 92, 48, 89, 55, 14, 83, 90, 77, 95, 71, 81, 80, 45, 89, 29, 42, 68, 93, 41 |
     36, 61, 20, 19, 92, 55, 87, 70, 46, 84, 38, 58, 89, 4, 70, 64, 35, 51, 9, 80 |
     26, 58, 28, 54, 23, 99, 53, 89, 86, 10, 22, 53, 34, 54, 60, 69, 57, 11, 21, 5 |
     61, 5, 3, 75, 31, 13, 12, 75, 10, 59, 77, 30, 35, 34, 48, 43, 17, 81, 90, 82 |
     81, 56, 12, 82, 66, 34, 94, 65, 83, 34, 93, 74, 8, 64, 35, 79, 84, 12, 61, 96 |
     80, 11, 28, 11, 14, 20, 9, 99, 92, 92, 57, 63, 8, 30, 1, 26, 97, 11, 45, 90 |
     77, 78, 1, 15, 34, 29, 60, 49, 76, 54, 9, 62, 38, 52, 53, 35, 78, 67, 64, 62 |
     36, 68, 4, 77, 55, 60, 52, 52, 59, 89, 98, 40, 35, 1, 29, 89, 28, 21, 9, 18 |
     52, 72, 98, 13, 40, 76, 60, 76, 31, 64, 6, 78, 55, 98, 15, 62, 93, 62, 19, 27 |
     93, 23, 12, 10, 15, 30, 50, 63, 32, 32, 90, 60, 7, 47, 96, 33, 99, 23, 30, 44 |
     27, 12, 18, 23, 26, 45, 20, 11, 79, 15, 29, 20, 53, 69, 18, 95, 79, 44, 3, 94 |
     72, 58, 47, 33, 40, 8, 30, 51, 74, 81, 58, 66, 47, 89, 19, 46, 37, 2, 6, 73 |
     1, 8, 49, 33, 43, 14, 89, 47, 8, 36, 2, 95, 72, 71, 71, 18, 65, 57, 75, 1 |
     9, 62, 57, 25, 92, 16, 27, 17, 17, 37, 86, 44, 56, 34, 21, 80, 49, 76, 8, 35 |];

mc = [| 16, 7, 19, 1, 15, 13, 12, 4, 17, 18, 14, 10, 5, 20, 9, 6, 2, 8, 11, 3 |
      13, 5, 11, 17, 10, 2, 16, 14, 20, 19, 7, 1, 18, 3, 6, 4, 12, 15, 9, 8 |
      1, 7, 14, 5, 10, 19, 3, 9, 13, 16, 8, 2, 20, 6, 15, 12, 11, 17, 4, 18 |
      9, 10, 17, 18, 7, 1, 3, 16, 13, 14, 15, 20, 11, 6, 8, 2, 5, 12, 4, 19 |
      6, 9, 1, 4, 13, 8, 5, 10, 3, 17, 14, 12, 2, 7, 20, 19, 18, 16, 11, 15 |
      7, 2, 9, 5, 4, 19, 17, 14, 8, 11, 20, 1, 3, 18, 13, 15, 6, 16, 12, 10 |
      18, 11, 4, 5, 6, 17, 20, 8, 19, 1, 10, 2, 7, 14, 12, 15, 16, 13, 9, 3 |
      12, 10, 6, 16, 11, 5, 9, 15, 18, 13, 14, 19, 7, 2, 17, 20, 1, 4, 8, 3 |
      19, 2, 14, 13, 5, 18, 7, 12, 10, 15, 20, 8, 16, 3, 6, 17, 11, 4, 1, 9 |
      19, 15, 7, 11, 3, 13, 6, 17, 10, 1, 16, 8, 4, 20, 18, 2, 12, 14, 5, 9 |
      6, 18, 20, 1, 3, 13, 11, 10, 14, 16, 12, 15, 4, 8, 2, 17, 19, 9, 5, 7 |
      18, 17, 1, 10, 2, 11, 5, 13, 16, 9, 6, 4, 8, 19, 12, 3, 15, 7, 20, 14 |
      17, 3, 14, 15, 11, 5, 12, 4, 9, 8, 20, 19, 2, 16, 18, 10, 1, 7, 6, 13 |
      20, 15, 3, 17, 16, 2, 4, 11, 8, 14, 12, 9, 5, 7, 1, 6, 10, 13, 18, 19 |
      18, 1, 3, 10, 17, 5, 2, 6, 20, 16, 8, 7, 9, 4, 14, 11, 15, 19, 13, 12 |
      18, 4, 7, 2, 16, 8, 1, 19, 17, 6, 12, 15, 11, 13, 9, 20, 3, 10, 5, 14 |
      9, 19, 3, 20, 6, 12, 15, 18, 5, 2, 1, 10, 11, 16, 14, 17, 7, 4, 8, 13 |
      14, 18, 4, 16, 15, 19, 13, 11, 9, 17, 12, 20, 2, 10, 3, 5, 6, 8, 7, 1 |
      11, 9, 16, 8, 12, 17, 14, 13, 18, 3, 10, 4, 19, 1, 6, 5, 7, 15, 20, 2 |
      4, 10, 2, 11, 17, 20, 18, 9, 16, 15, 14, 13, 8, 6, 1, 5, 7, 12, 3, 19 |
      12, 5, 19, 13, 17, 18, 20, 4, 2, 1, 7, 10, 15, 3, 14, 6, 16, 9, 11, 8 |
      11, 12, 6, 13, 9, 7, 19, 3, 20, 10, 14, 2, 8, 17, 1, 5, 18, 16, 4, 15 |
      12, 13, 19, 17, 1, 6, 14, 16, 5, 20, 2, 3, 11, 7, 9, 10, 18, 8, 4, 15 |
      20, 18, 19, 15, 5, 17, 9, 8, 7, 11, 6, 13, 1, 16, 4, 2, 10, 12, 3, 14 |
      19, 9, 1, 10, 18, 20, 13, 14, 6, 15, 12, 5, 8, 2, 16, 3, 17, 4, 7, 11 |
      4, 15, 10, 12, 18, 17, 19, 2, 5, 16, 6, 8, 7, 20, 14, 1, 3, 13, 11, 9 |
      5, 10, 7, 2, 16, 15, 8, 18, 11, 20, 17, 6, 1, 9, 19, 4, 14, 13, 3, 12 |
      20, 13, 4, 7, 2, 14, 9, 8, 3, 11, 19, 16, 10, 12, 6, 15, 18, 17, 1, 5 |
      1, 14, 4, 10, 20, 3, 17, 9, 6, 7, 15, 11, 2, 16, 12, 18, 8, 13, 19, 5 |
      2, 4, 15, 8, 3, 18, 17, 16, 20, 13, 6, 12, 7, 19, 1, 10, 14, 5, 9, 11 |];
