n = 20;
m = 15;

d = [| 95, 66, 25, 90, 27, 39, 44, 13, 5, 19, 63, 26, 42, 25, 64 |
     89, 79, 63, 65, 16, 89, 23, 78, 48, 80, 28, 10, 50, 82, 29 |
     19, 52, 45, 23, 52, 79, 1, 56, 24, 81, 15, 41, 45, 52, 67 |
     5, 55, 48, 60, 59, 18, 48, 47, 61, 80, 74, 20, 16, 99, 1 |
     74, 96, 97, 51, 6, 66, 56, 10, 94, 28, 82, 73, 92, 25, 14 |
     26, 19, 55, 51, 85, 5, 23, 27, 43, 94, 78, 10, 21, 64, 22 |
     96, 1, 22, 69, 59, 85, 30, 46, 19, 40, 37, 53, 36, 12, 92 |
     3, 84, 85, 27, 58, 93, 72, 46, 41, 31, 5, 11, 45, 25, 2 |
     88, 50, 89, 67, 73, 58, 32, 68, 1, 85, 18, 79, 32, 58, 34 |
     2, 30, 75, 14, 16, 36, 39, 57, 29, 98, 42, 62, 63, 40, 43 |
     53, 2, 30, 29, 85, 17, 40, 42, 45, 83, 82, 93, 28, 46, 23 |
     5, 89, 27, 70, 56, 99, 65, 56, 42, 76, 62, 71, 91, 33, 47 |
     47, 84, 55, 13, 54, 44, 3, 92, 25, 69, 77, 70, 81, 16, 86 |
     69, 23, 88, 62, 85, 36, 51, 21, 23, 84, 25, 22, 15, 13, 24 |
     75, 87, 52, 51, 69, 98, 57, 94, 59, 88, 64, 31, 94, 61, 74 |
     8, 55, 12, 57, 61, 62, 77, 95, 11, 58, 16, 86, 59, 97, 25 |
     62, 17, 73, 37, 69, 82, 86, 30, 27, 65, 59, 25, 52, 88, 32 |
     99, 65, 81, 27, 83, 17, 47, 12, 87, 11, 15, 43, 30, 59, 75 |
     16, 3, 28, 89, 69, 88, 60, 65, 11, 26, 97, 7, 27, 30, 85 |
     42, 63, 68, 18, 70, 25, 38, 1, 91, 51, 38, 56, 10, 77, 55 |];

mc = [| 1, 5, 9, 14, 12, 13, 8, 15, 6, 10, 4, 2, 7, 11, 3 |
      3, 1, 6, 8, 10, 15, 5, 11, 7, 2, 9, 13, 4, 14, 12 |
      7, 8, 6, 4, 15, 14, 13, 3, 5, 12, 9, 10, 1, 2, 11 |
      7, 1, 6, 12, 14, 3, 11, 2, 13, 15, 9, 10, 5, 8, 4 |
      11, 3, 12, 9, 2, 10, 1, 8, 7, 4, 14, 15, 6, 13, 5 |
      7, 5, 2, 8, 1, 11, 9, 14, 10, 6, 13, 15, 4, 3, 12 |
      3, 7, 1, 6, 13, 15, 9, 11, 8, 4, 14, 10, 12, 2, 5 |
      2, 15, 5, 14, 8, 11, 12, 6, 1, 9, 10, 13, 3, 7, 4 |
      1, 15, 6, 9, 3, 4, 2, 5, 11, 8, 7, 13, 14, 12, 10 |
      1, 4, 11, 3, 5, 2, 13, 6, 10, 15, 9, 8, 14, 12, 7 |
      3, 12, 10, 11, 1, 13, 14, 2, 9, 5, 7, 15, 4, 8, 6 |
      15, 9, 6, 8, 14, 5, 12, 7, 2, 1, 11, 4, 3, 13, 10 |
      2, 4, 13, 14, 15, 9, 11, 8, 12, 1, 10, 3, 6, 5, 7 |
      11, 10, 4, 6, 8, 2, 13, 7, 3, 15, 12, 5, 9, 14, 1 |
      15, 3, 10, 4, 5, 9, 2, 11, 1, 6, 8, 14, 13, 7, 12 |
      7, 4, 1, 5, 13, 12, 15, 8, 14, 11, 9, 2, 3, 10, 6 |
      14, 6, 11, 10, 15, 9, 4, 8, 5, 12, 1, 7, 13, 2, 3 |
      10, 3, 8, 9, 12, 7, 4, 6, 1, 14, 11, 13, 5, 2, 15 |
      13, 12, 14, 15, 5, 10, 7, 11, 8, 4, 6, 3, 9, 1, 2 |
      6, 3, 5, 9, 2, 14, 4, 11, 13, 8, 10, 1, 12, 15, 7 |];
