n = 30;
m = 20;

d = [| 82, 82, 17, 87, 40, 28, 89, 86, 70, 58, 57, 56, 6, 27, 73, 43, 15, 99, 67, 48 |
     69, 40, 91, 70, 6, 32, 94, 93, 18, 4, 96, 56, 76, 30, 21, 20, 37, 65, 41, 66 |
     40, 56, 50, 33, 3, 90, 99, 22, 45, 44, 2, 17, 49, 45, 61, 34, 59, 95, 5, 95 |
     74, 80, 46, 6, 34, 87, 38, 83, 37, 76, 49, 81, 94, 57, 36, 29, 55, 28, 22, 39 |
     88, 11, 62, 70, 79, 68, 94, 13, 78, 32, 2, 54, 93, 69, 79, 46, 77, 35, 72, 92 |
     94, 65, 36, 28, 70, 22, 2, 2, 73, 96, 99, 28, 77, 39, 71, 30, 29, 23, 74, 42 |
     15, 27, 93, 46, 70, 26, 88, 8, 16, 53, 10, 94, 84, 77, 4, 91, 26, 46, 6, 85 |
     28, 2, 6, 25, 43, 78, 46, 95, 5, 41, 31, 35, 68, 84, 93, 22, 8, 83, 15, 58 |
     43, 31, 71, 10, 20, 91, 38, 37, 8, 69, 83, 23, 18, 35, 26, 46, 56, 35, 66, 23 |
     16, 63, 54, 6, 10, 94, 64, 3, 60, 39, 32, 12, 97, 97, 52, 36, 11, 64, 48, 75 |
     78, 62, 96, 21, 27, 80, 71, 15, 50, 98, 20, 58, 56, 88, 67, 88, 14, 90, 40, 65 |
     86, 91, 25, 82, 54, 20, 79, 67, 35, 71, 86, 12, 90, 5, 85, 39, 68, 48, 38, 12 |
     47, 76, 25, 27, 39, 56, 4, 49, 25, 68, 9, 80, 15, 59, 35, 42, 59, 35, 20, 88 |
     97, 26, 87, 47, 68, 91, 77, 9, 9, 72, 29, 96, 88, 57, 27, 59, 55, 14, 79, 75 |
     17, 17, 76, 74, 42, 4, 89, 6, 89, 62, 26, 60, 59, 8, 15, 13, 89, 5, 7, 51 |
     21, 78, 54, 87, 14, 20, 99, 28, 79, 9, 95, 82, 12, 1, 14, 97, 76, 9, 79, 16 |
     50, 35, 56, 72, 69, 42, 21, 35, 4, 23, 99, 29, 55, 23, 31, 77, 78, 28, 43, 19 |
     33, 24, 70, 94, 4, 68, 71, 21, 70, 40, 4, 23, 63, 92, 6, 84, 21, 62, 68, 88 |
     62, 91, 65, 6, 51, 24, 10, 62, 6, 27, 88, 93, 42, 13, 5, 7, 34, 82, 29, 94 |
     43, 46, 63, 24, 52, 91, 47, 61, 67, 4, 35, 64, 88, 58, 68, 23, 80, 73, 60, 20 |
     48, 19, 25, 73, 46, 37, 85, 85, 96, 83, 92, 95, 6, 42, 21, 67, 43, 76, 14, 97 |
     75, 90, 97, 15, 92, 27, 22, 95, 44, 29, 47, 72, 97, 93, 5, 47, 95, 17, 86, 5 |
     66, 90, 1, 86, 86, 48, 88, 86, 63, 39, 55, 58, 38, 26, 58, 90, 22, 16, 88, 57 |
     85, 46, 39, 14, 86, 75, 78, 38, 1, 50, 88, 10, 62, 54, 74, 33, 48, 10, 72, 9 |
     58, 38, 79, 56, 97, 48, 59, 19, 72, 83, 64, 51, 91, 34, 71, 35, 94, 57, 5, 23 |
     84, 99, 10, 44, 92, 83, 71, 97, 36, 80, 90, 66, 57, 78, 67, 64, 28, 93, 53, 65 |
     88, 41, 25, 24, 58, 2, 71, 23, 84, 37, 55, 45, 83, 98, 58, 68, 90, 6, 45, 30 |
     66, 24, 56, 71, 85, 2, 7, 30, 51, 10, 56, 73, 4, 65, 42, 19, 68, 77, 4, 16 |
     88, 18, 64, 23, 63, 40, 93, 92, 90, 28, 87, 53, 10, 88, 38, 17, 77, 68, 50, 79 |
     82, 97, 21, 35, 1, 40, 17, 81, 5, 10, 9, 56, 96, 15, 9, 13, 65, 79, 82, 5 |];

mc = [| 12, 19, 2, 7, 15, 13, 1, 3, 18, 16, 14, 17, 11, 20, 6, 10, 4, 8, 5, 9 |
      5, 4, 13, 16, 17, 6, 18, 11, 19, 12, 9, 10, 8, 14, 7, 1, 15, 20, 2, 3 |
      4, 15, 5, 19, 17, 10, 8, 12, 11, 1, 3, 13, 9, 14, 20, 2, 6, 16, 18, 7 |
      1, 7, 2, 16, 10, 13, 8, 4, 17, 18, 11, 5, 19, 15, 9, 12, 3, 6, 14, 20 |
      11, 6, 2, 1, 10, 13, 9, 3, 20, 16, 18, 19, 4, 8, 14, 5, 15, 12, 7, 17 |
      12, 3, 8, 11, 19, 4, 17, 7, 16, 6, 1, 10, 2, 15, 13, 9, 18, 20, 14, 5 |
      6, 7, 16, 11, 9, 13, 19, 14, 2, 1, 12, 20, 15, 10, 3, 5, 4, 8, 18, 17 |
      8, 13, 9, 20, 5, 19, 15, 10, 7, 1, 11, 18, 12, 17, 6, 2, 4, 16, 14, 3 |
      20, 7, 12, 14, 17, 16, 8, 9, 5, 18, 6, 2, 3, 11, 15, 10, 13, 19, 4, 1 |
      9, 3, 17, 4, 1, 20, 2, 14, 6, 13, 12, 16, 7, 8, 5, 15, 18, 10, 19, 11 |
      11, 16, 4, 15, 9, 6, 3, 5, 17, 18, 14, 8, 2, 10, 20, 13, 12, 19, 1, 7 |
      1, 15, 19, 17, 20, 8, 14, 16, 3, 9, 5, 6, 13, 11, 18, 10, 4, 2, 7, 12 |
      1, 16, 14, 9, 4, 5, 19, 13, 18, 8, 2, 15, 6, 12, 11, 10, 7, 3, 17, 20 |
      19, 18, 9, 17, 2, 1, 15, 16, 3, 8, 4, 14, 7, 10, 12, 20, 11, 6, 13, 5 |
      8, 1, 2, 10, 5, 7, 4, 6, 11, 3, 15, 17, 9, 12, 19, 20, 14, 16, 13, 18 |
      14, 16, 20, 2, 3, 11, 9, 10, 13, 8, 19, 4, 18, 17, 15, 7, 1, 12, 6, 5 |
      16, 13, 12, 1, 3, 19, 7, 2, 9, 8, 6, 5, 20, 15, 4, 17, 18, 10, 11, 14 |
      6, 15, 16, 19, 4, 17, 14, 1, 18, 3, 11, 7, 20, 8, 2, 13, 9, 10, 5, 12 |
      11, 10, 2, 18, 9, 19, 13, 5, 8, 1, 4, 3, 7, 12, 16, 15, 17, 20, 6, 14 |
      1, 4, 2, 5, 11, 16, 15, 17, 19, 14, 9, 12, 13, 20, 6, 8, 18, 3, 7, 10 |
      8, 14, 2, 18, 5, 13, 17, 1, 10, 9, 11, 12, 3, 6, 16, 7, 4, 20, 15, 19 |
      20, 13, 8, 18, 6, 10, 11, 17, 2, 9, 19, 14, 4, 5, 1, 15, 12, 16, 3, 7 |
      15, 1, 19, 16, 18, 4, 8, 11, 9, 6, 2, 20, 17, 14, 13, 5, 10, 7, 3, 12 |
      3, 8, 14, 5, 7, 13, 2, 9, 6, 18, 11, 12, 1, 16, 4, 17, 15, 10, 19, 20 |
      2, 7, 1, 6, 19, 3, 18, 16, 13, 8, 11, 12, 14, 5, 15, 17, 20, 10, 9, 4 |
      9, 15, 17, 19, 14, 2, 6, 20, 18, 13, 11, 4, 5, 16, 10, 12, 1, 8, 3, 7 |
      16, 4, 11, 19, 2, 6, 3, 15, 12, 17, 5, 7, 1, 13, 10, 18, 9, 8, 14, 20 |
      16, 3, 8, 15, 18, 9, 11, 20, 2, 7, 10, 14, 19, 17, 12, 1, 6, 5, 13, 4 |
      18, 7, 5, 19, 4, 8, 20, 12, 1, 2, 9, 11, 14, 13, 10, 3, 6, 17, 15, 16 |
      4, 10, 5, 18, 12, 16, 3, 11, 13, 20, 1, 2, 14, 19, 7, 15, 9, 17, 6, 8 |];
