n = 50;
m = 20;

d = [| 85, 6, 76, 5, 67, 59, 84, 41, 69, 47, 88, 81, 35, 43, 2, 45, 51, 25, 12, 20 |
     21, 94, 92, 88, 9, 73, 12, 60, 68, 15, 24, 93, 41, 29, 13, 95, 26, 63, 11, 10 |
     75, 68, 10, 87, 24, 30, 63, 73, 38, 90, 96, 61, 76, 54, 42, 12, 22, 80, 10, 8 |
     88, 31, 91, 5, 90, 18, 53, 30, 94, 34, 97, 64, 80, 47, 70, 75, 58, 85, 46, 40 |
     95, 34, 59, 92, 72, 78, 49, 85, 63, 33, 17, 98, 57, 89, 5, 89, 33, 55, 12, 87 |
     21, 66, 98, 87, 57, 41, 65, 89, 13, 35, 83, 42, 42, 66, 16, 74, 73, 87, 46, 84 |
     80, 21, 19, 22, 6, 1, 55, 74, 73, 84, 43, 80, 52, 95, 30, 39, 65, 4, 13, 78 |
     21, 96, 89, 70, 3, 48, 65, 49, 56, 41, 51, 51, 47, 59, 8, 30, 67, 97, 79, 59 |
     49, 38, 85, 97, 1, 67, 61, 80, 5, 24, 14, 7, 64, 44, 82, 42, 15, 63, 17, 38 |
     45, 81, 63, 14, 55, 6, 34, 59, 15, 45, 20, 52, 29, 63, 4, 34, 37, 34, 7, 32 |
     90, 30, 62, 83, 51, 36, 19, 97, 81, 63, 58, 72, 9, 60, 50, 22, 18, 20, 54, 47 |
     53, 68, 56, 87, 83, 27, 87, 51, 6, 66, 81, 95, 93, 51, 47, 38, 17, 63, 66, 43 |
     90, 13, 1, 95, 35, 64, 35, 68, 67, 10, 39, 24, 18, 16, 73, 44, 65, 39, 78, 71 |
     82, 28, 52, 85, 69, 97, 56, 54, 34, 18, 87, 47, 43, 29, 68, 74, 62, 73, 2, 91 |
     31, 58, 16, 91, 17, 18, 2, 54, 55, 50, 9, 12, 35, 18, 38, 55, 35, 58, 60, 76 |
     93, 40, 13, 5, 4, 78, 74, 81, 3, 34, 57, 12, 5, 90, 41, 20, 60, 83, 47, 84 |
     8, 98, 77, 27, 66, 26, 48, 84, 90, 94, 94, 12, 32, 37, 19, 95, 28, 54, 23, 27 |
     95, 74, 80, 15, 91, 36, 54, 64, 21, 67, 70, 87, 58, 12, 67, 45, 39, 30, 90, 34 |
     75, 50, 35, 86, 21, 88, 74, 49, 87, 90, 39, 33, 8, 58, 32, 64, 31, 37, 69, 52 |
     27, 90, 69, 1, 95, 8, 62, 91, 19, 69, 80, 34, 88, 47, 51, 87, 86, 45, 32, 86 |
     62, 20, 43, 56, 69, 59, 51, 40, 46, 86, 7, 60, 37, 21, 24, 87, 73, 4, 63, 95 |
     7, 44, 84, 55, 38, 83, 38, 40, 51, 26, 38, 85, 3, 16, 73, 1, 57, 9, 21, 50 |
     81, 14, 71, 45, 2, 37, 74, 65, 33, 80, 89, 6, 15, 81, 25, 63, 7, 16, 27, 25 |
     68, 6, 36, 77, 6, 8, 32, 7, 72, 22, 91, 88, 50, 81, 7, 38, 64, 1, 78, 43 |
     54, 69, 32, 49, 16, 51, 53, 61, 63, 13, 74, 54, 46, 2, 63, 7, 5, 12, 66, 62 |
     95, 80, 54, 72, 23, 32, 29, 91, 24, 18, 29, 27, 16, 40, 89, 16, 87, 75, 82, 70 |
     78, 95, 21, 10, 11, 50, 47, 45, 78, 46, 88, 95, 20, 41, 17, 91, 47, 31, 41, 49 |
     63, 45, 53, 80, 71, 98, 16, 46, 5, 7, 2, 25, 27, 14, 83, 99, 53, 6, 66, 30 |
     13, 63, 10, 51, 32, 49, 2, 68, 85, 30, 62, 71, 14, 64, 86, 6, 44, 12, 67, 97 |
     90, 73, 40, 58, 17, 32, 42, 55, 15, 31, 94, 96, 89, 12, 41, 9, 20, 56, 35, 40 |
     41, 42, 69, 8, 79, 20, 2, 45, 28, 10, 76, 95, 94, 2, 56, 51, 70, 8, 29, 47 |
     33, 42, 40, 21, 18, 40, 36, 47, 42, 29, 22, 67, 76, 52, 72, 56, 45, 86, 20, 34 |
     33, 65, 29, 2, 24, 4, 2, 88, 78, 63, 27, 31, 83, 23, 14, 86, 92, 8, 77, 1 |
     57, 29, 99, 19, 58, 16, 64, 59, 93, 34, 88, 26, 43, 46, 37, 73, 17, 78, 5, 79 |
     50, 71, 28, 13, 39, 87, 22, 62, 16, 55, 64, 97, 81, 94, 52, 87, 40, 16, 19, 36 |
     25, 90, 72, 90, 25, 88, 54, 13, 9, 92, 88, 90, 97, 48, 68, 21, 87, 64, 88, 95 |
     3, 2, 64, 4, 43, 15, 1, 4, 36, 7, 84, 25, 53, 80, 54, 29, 48, 24, 94, 54 |
     70, 97, 35, 9, 84, 25, 81, 56, 28, 62, 5, 81, 78, 90, 6, 37, 14, 7, 65, 51 |
     17, 74, 5, 28, 56, 57, 21, 63, 95, 97, 77, 17, 20, 17, 27, 27, 96, 50, 93, 89 |
     49, 81, 12, 63, 99, 90, 2, 47, 99, 61, 29, 70, 7, 23, 94, 85, 15, 79, 34, 27 |
     33, 30, 61, 67, 33, 94, 43, 18, 95, 27, 42, 7, 79, 36, 85, 84, 22, 44, 74, 86 |
     95, 28, 46, 70, 35, 71, 18, 61, 49, 66, 66, 9, 32, 12, 81, 28, 14, 49, 54, 76 |
     93, 41, 44, 28, 19, 91, 13, 28, 44, 68, 86, 81, 57, 60, 26, 54, 37, 42, 59, 63 |
     70, 15, 84, 19, 59, 83, 67, 40, 73, 99, 57, 44, 98, 71, 37, 96, 40, 41, 95, 44 |
     68, 75, 10, 15, 67, 81, 42, 38, 60, 8, 30, 67, 75, 64, 80, 56, 35, 59, 18, 71 |
     19, 34, 91, 59, 33, 17, 34, 87, 64, 78, 23, 44, 77, 38, 69, 85, 40, 32, 78, 2 |
     66, 26, 93, 85, 53, 34, 96, 48, 3, 69, 38, 56, 62, 18, 35, 61, 44, 78, 72, 46 |
     58, 21, 22, 87, 94, 4, 87, 99, 67, 29, 44, 62, 46, 85, 37, 57, 88, 14, 6, 81 |
     10, 5, 93, 10, 31, 99, 29, 95, 90, 99, 37, 69, 47, 41, 5, 17, 98, 21, 25, 67 |
     3, 35, 14, 51, 69, 33, 63, 52, 14, 79, 96, 14, 34, 70, 66, 96, 39, 82, 70, 15 |];

mc = [| 1, 14, 3, 13, 20, 5, 11, 12, 7, 15, 10, 9, 16, 18, 17, 2, 6, 4, 8, 19 |
      8, 15, 7, 13, 19, 6, 3, 16, 9, 4, 20, 14, 5, 11, 10, 1, 2, 17, 18, 12 |
      19, 15, 4, 6, 5, 9, 2, 18, 13, 11, 7, 1, 12, 16, 8, 17, 10, 3, 14, 20 |
      8, 20, 19, 17, 6, 3, 4, 10, 13, 16, 9, 5, 14, 15, 1, 12, 11, 18, 2, 7 |
      13, 12, 16, 9, 17, 10, 7, 19, 2, 5, 14, 20, 3, 1, 8, 15, 11, 4, 6, 18 |
      17, 11, 13, 7, 18, 9, 6, 10, 19, 5, 20, 12, 1, 16, 4, 15, 3, 8, 14, 2 |
      11, 16, 1, 14, 13, 20, 10, 18, 12, 19, 9, 6, 4, 2, 5, 17, 8, 7, 3, 15 |
      19, 1, 7, 10, 16, 14, 17, 12, 20, 11, 9, 8, 4, 18, 3, 2, 13, 6, 15, 5 |
      5, 14, 18, 16, 12, 4, 15, 7, 2, 13, 17, 9, 10, 20, 6, 11, 19, 1, 8, 3 |
      4, 8, 6, 1, 15, 3, 5, 18, 17, 9, 19, 14, 7, 16, 2, 20, 13, 11, 10, 12 |
      10, 12, 8, 11, 14, 17, 6, 19, 15, 5, 13, 7, 4, 3, 2, 16, 9, 20, 1, 18 |
      1, 20, 15, 7, 18, 3, 4, 17, 16, 14, 19, 12, 10, 8, 13, 6, 11, 9, 5, 2 |
      7, 19, 2, 5, 18, 1, 8, 9, 4, 20, 6, 15, 10, 13, 17, 11, 16, 3, 14, 12 |
      7, 19, 11, 18, 16, 15, 17, 9, 1, 6, 3, 4, 20, 8, 10, 12, 13, 5, 14, 2 |
      7, 9, 6, 16, 8, 14, 13, 19, 15, 20, 3, 4, 11, 10, 5, 1, 18, 12, 2, 17 |
      19, 13, 12, 14, 10, 17, 11, 15, 16, 1, 9, 3, 2, 5, 4, 6, 18, 7, 8, 20 |
      12, 11, 10, 13, 20, 3, 5, 16, 1, 18, 15, 6, 19, 7, 9, 2, 17, 8, 14, 4 |
      13, 3, 14, 20, 5, 9, 1, 16, 4, 12, 11, 2, 18, 6, 8, 7, 10, 15, 17, 19 |
      3, 12, 19, 16, 17, 4, 15, 18, 13, 9, 7, 8, 11, 1, 6, 20, 2, 14, 10, 5 |
      10, 4, 11, 16, 8, 6, 13, 9, 19, 7, 3, 15, 17, 12, 14, 5, 20, 1, 18, 2 |
      18, 12, 3, 13, 6, 1, 2, 8, 17, 7, 4, 15, 5, 10, 19, 16, 14, 9, 20, 11 |
      4, 5, 2, 9, 10, 13, 11, 3, 8, 17, 15, 6, 20, 7, 16, 12, 14, 18, 1, 19 |
      11, 9, 15, 17, 1, 12, 16, 20, 2, 4, 19, 6, 8, 10, 18, 14, 13, 7, 3, 5 |
      17, 11, 7, 3, 4, 8, 10, 13, 19, 16, 12, 6, 1, 5, 15, 9, 18, 20, 14, 2 |
      12, 16, 1, 6, 14, 5, 10, 2, 7, 4, 15, 9, 3, 20, 11, 18, 8, 13, 19, 17 |
      18, 10, 17, 8, 14, 16, 4, 13, 11, 15, 3, 1, 7, 9, 2, 12, 6, 19, 20, 5 |
      18, 16, 5, 20, 4, 3, 13, 15, 1, 11, 2, 14, 9, 12, 7, 10, 17, 8, 19, 6 |
      19, 7, 17, 1, 14, 8, 4, 10, 11, 3, 15, 9, 5, 16, 18, 13, 6, 12, 20, 2 |
      11, 15, 1, 19, 13, 2, 12, 20, 7, 14, 9, 4, 16, 6, 8, 3, 5, 18, 17, 10 |
      8, 7, 9, 13, 4, 11, 1, 3, 17, 18, 14, 12, 2, 5, 20, 19, 15, 10, 6, 16 |
      20, 4, 9, 10, 11, 14, 17, 7, 16, 2, 19, 18, 6, 5, 15, 12, 3, 13, 8, 1 |
      3, 17, 8, 18, 6, 5, 20, 1, 11, 9, 13, 7, 16, 15, 19, 10, 2, 12, 4, 14 |
      16, 11, 7, 20, 5, 8, 1, 6, 10, 13, 15, 4, 3, 12, 19, 14, 9, 2, 18, 17 |
      16, 9, 12, 10, 15, 18, 8, 5, 6, 1, 20, 17, 7, 19, 13, 2, 3, 4, 14, 11 |
      19, 17, 8, 7, 20, 18, 15, 12, 13, 10, 6, 16, 2, 9, 11, 1, 4, 3, 5, 14 |
      10, 17, 14, 6, 9, 8, 15, 12, 7, 13, 2, 11, 4, 18, 19, 1, 5, 16, 20, 3 |
      16, 8, 1, 14, 4, 6, 11, 13, 5, 18, 10, 15, 17, 7, 9, 3, 2, 12, 20, 19 |
      14, 17, 11, 7, 15, 5, 13, 1, 2, 4, 10, 8, 9, 6, 20, 3, 16, 18, 19, 12 |
      17, 13, 11, 8, 2, 16, 14, 6, 19, 3, 15, 20, 5, 4, 18, 9, 1, 12, 7, 10 |
      18, 8, 10, 16, 11, 15, 1, 2, 3, 7, 14, 17, 12, 6, 19, 9, 4, 13, 5, 20 |
      9, 8, 16, 17, 3, 14, 5, 1, 19, 20, 4, 15, 18, 7, 10, 11, 13, 12, 6, 2 |
      17, 20, 3, 4, 10, 9, 2, 18, 6, 8, 11, 15, 7, 5, 14, 19, 16, 13, 12, 1 |
      13, 4, 3, 18, 7, 2, 1, 11, 10, 12, 15, 20, 6, 9, 19, 14, 5, 17, 16, 8 |
      9, 16, 5, 18, 1, 13, 17, 8, 11, 3, 19, 10, 15, 20, 6, 2, 14, 4, 7, 12 |
      8, 2, 10, 12, 6, 13, 4, 9, 14, 3, 18, 19, 1, 17, 7, 11, 15, 16, 5, 20 |
      18, 10, 19, 5, 20, 16, 4, 6, 1, 15, 3, 17, 8, 2, 9, 11, 7, 14, 13, 12 |
      8, 14, 11, 16, 1, 2, 19, 12, 17, 10, 18, 5, 4, 13, 3, 15, 6, 20, 7, 9 |
      9, 11, 3, 1, 5, 17, 6, 18, 2, 13, 4, 20, 14, 16, 12, 19, 7, 15, 10, 8 |
      15, 5, 6, 16, 7, 11, 8, 14, 17, 2, 19, 4, 12, 18, 1, 9, 10, 3, 13, 20 |
      4, 3, 14, 1, 17, 6, 9, 5, 10, 8, 20, 13, 2, 15, 11, 19, 7, 18, 16, 12 |];
