n = 100;
m = 20;

d = [| 21, 8, 14, 10, 34, 81, 95, 14, 98, 19, 55, 97, 96, 23, 28, 47, 53, 16, 51, 3 |
     7, 67, 98, 59, 64, 44, 57, 59, 52, 78, 62, 23, 72, 13, 83, 13, 78, 75, 57, 68 |
     77, 61, 43, 40, 56, 89, 5, 79, 12, 22, 54, 88, 78, 52, 86, 99, 93, 54, 4, 46 |
     50, 75, 48, 21, 35, 51, 36, 70, 4, 18, 74, 46, 80, 45, 84, 73, 6, 50, 76, 15 |
     13, 22, 73, 43, 53, 40, 48, 60, 60, 70, 53, 83, 12, 30, 84, 23, 17, 47, 50, 58 |
     6, 32, 16, 65, 53, 97, 70, 46, 34, 87, 10, 93, 70, 94, 22, 89, 89, 70, 14, 91 |
     79, 1, 71, 50, 29, 73, 51, 7, 15, 43, 60, 51, 31, 55, 86, 61, 82, 28, 90, 5 |
     7, 83, 60, 80, 52, 60, 62, 30, 84, 69, 22, 65, 92, 22, 38, 96, 33, 88, 53, 40 |
     40, 41, 31, 97, 88, 58, 52, 5, 93, 56, 2, 74, 56, 63, 72, 20, 77, 51, 39, 31 |
     59, 58, 32, 83, 66, 73, 79, 12, 7, 93, 49, 38, 38, 16, 28, 44, 90, 70, 70, 76 |
     80, 98, 3, 35, 93, 49, 89, 16, 5, 82, 2, 17, 1, 17, 42, 28, 12, 55, 11, 27 |
     83, 6, 72, 65, 50, 29, 36, 77, 79, 57, 18, 18, 12, 5, 54, 16, 2, 15, 33, 59 |
     28, 37, 29, 99, 22, 69, 77, 19, 17, 55, 94, 13, 61, 52, 16, 77, 73, 72, 7, 37 |
     77, 54, 9, 58, 96, 49, 7, 90, 6, 34, 64, 99, 97, 95, 60, 97, 88, 39, 78, 35 |
     46, 40, 96, 34, 58, 25, 20, 77, 29, 60, 39, 74, 94, 41, 70, 70, 83, 76, 98, 40 |
     19, 61, 88, 37, 38, 60, 9, 89, 65, 54, 4, 8, 67, 97, 76, 92, 19, 84, 45, 80 |
     29, 87, 97, 20, 21, 41, 38, 97, 37, 2, 60, 70, 24, 88, 97, 84, 84, 2, 46, 15 |
     46, 59, 38, 88, 14, 96, 64, 84, 47, 97, 41, 25, 1, 16, 36, 4, 97, 42, 18, 37 |
     91, 92, 2, 7, 81, 92, 63, 91, 27, 39, 95, 18, 49, 28, 89, 2, 68, 39, 57, 75 |
     80, 67, 69, 36, 84, 57, 60, 91, 30, 19, 94, 37, 22, 57, 50, 4, 88, 45, 84, 4 |
     84, 68, 43, 49, 18, 93, 92, 26, 94, 49, 5, 86, 95, 71, 76, 46, 98, 99, 7, 91 |
     11, 7, 97, 98, 3, 93, 82, 8, 20, 66, 18, 50, 3, 73, 41, 48, 83, 1, 59, 96 |
     22, 31, 71, 51, 53, 92, 18, 94, 5, 18, 79, 3, 47, 42, 84, 40, 32, 31, 22, 51 |
     87, 70, 5, 53, 86, 35, 45, 48, 23, 80, 78, 88, 31, 35, 18, 7, 4, 16, 70, 7 |
     15, 9, 84, 20, 19, 94, 86, 86, 13, 10, 37, 33, 48, 97, 81, 79, 51, 38, 62, 14 |
     36, 39, 23, 20, 74, 16, 18, 84, 14, 31, 94, 1, 3, 21, 14, 27, 79, 30, 62, 72 |
     3, 93, 42, 8, 44, 17, 18, 62, 56, 12, 54, 27, 39, 95, 27, 46, 71, 81, 25, 54 |
     76, 98, 53, 75, 44, 76, 37, 70, 85, 81, 61, 29, 33, 20, 93, 46, 54, 8, 5, 73 |
     89, 19, 69, 54, 52, 80, 54, 34, 1, 21, 86, 12, 42, 8, 59, 27, 68, 30, 85, 53 |
     13, 4, 4, 45, 64, 59, 69, 80, 32, 86, 32, 18, 6, 9, 38, 24, 16, 78, 30, 76 |
     17, 53, 63, 4, 32, 19, 5, 39, 42, 73, 4, 82, 54, 78, 98, 61, 86, 97, 85, 44 |
     7, 8, 44, 92, 99, 29, 85, 85, 40, 57, 52, 86, 38, 10, 66, 15, 61, 16, 41, 48 |
     86, 96, 51, 48, 69, 24, 98, 39, 65, 93, 97, 58, 59, 22, 94, 29, 11, 44, 85, 4 |
     35, 68, 59, 12, 27, 71, 1, 50, 7, 82, 74, 94, 19, 79, 71, 10, 70, 29, 12, 23 |
     59, 33, 6, 4, 6, 9, 27, 17, 32, 33, 62, 65, 10, 5, 23, 65, 27, 90, 84, 12 |
     41, 73, 56, 95, 68, 37, 85, 45, 91, 29, 47, 21, 7, 4, 44, 89, 85, 8, 88, 67 |
     4, 72, 81, 73, 11, 88, 80, 2, 51, 14, 55, 33, 3, 94, 72, 12, 72, 14, 61, 50 |
     93, 40, 59, 40, 67, 88, 26, 66, 37, 44, 53, 61, 84, 94, 34, 46, 67, 51, 89, 48 |
     80, 59, 15, 29, 6, 52, 57, 17, 13, 98, 25, 49, 20, 20, 32, 46, 51, 35, 73, 45 |
     59, 59, 97, 74, 51, 76, 32, 65, 79, 76, 58, 92, 77, 70, 85, 68, 1, 11, 18, 38 |
     71, 69, 19, 91, 79, 63, 91, 64, 17, 56, 56, 23, 98, 9, 95, 53, 88, 83, 7, 46 |
     43, 79, 97, 15, 8, 70, 7, 25, 53, 14, 91, 29, 85, 48, 26, 55, 3, 73, 58, 75 |
     17, 83, 10, 73, 56, 75, 52, 93, 49, 57, 6, 30, 30, 64, 64, 86, 91, 44, 96, 40 |
     67, 82, 9, 48, 40, 56, 32, 70, 58, 62, 58, 14, 93, 7, 13, 35, 51, 56, 76, 6 |
     71, 42, 67, 99, 21, 59, 12, 25, 56, 42, 2, 72, 64, 12, 34, 60, 21, 18, 88, 71 |
     31, 91, 24, 41, 90, 46, 6, 25, 9, 2, 91, 81, 2, 18, 93, 69, 65, 40, 8, 79 |
     5, 2, 43, 13, 59, 34, 65, 14, 51, 67, 30, 63, 95, 10, 86, 35, 74, 21, 73, 64 |
     63, 63, 37, 92, 10, 60, 70, 68, 4, 36, 41, 3, 95, 37, 87, 63, 56, 69, 46, 35 |
     10, 79, 69, 74, 37, 84, 7, 36, 19, 27, 88, 69, 78, 83, 16, 75, 52, 70, 39, 97 |
     96, 97, 13, 29, 56, 22, 10, 87, 1, 98, 4, 43, 25, 84, 69, 94, 61, 41, 78, 9 |
     18, 28, 87, 95, 72, 46, 31, 87, 98, 22, 90, 99, 61, 29, 14, 24, 38, 73, 19, 89 |
     3, 93, 84, 10, 12, 78, 59, 41, 64, 83, 74, 36, 51, 36, 95, 96, 22, 99, 78, 38 |
     53, 26, 99, 98, 24, 99, 97, 98, 14, 38, 12, 61, 71, 72, 10, 75, 67, 68, 21, 28 |
     43, 80, 75, 40, 11, 24, 88, 92, 69, 15, 91, 16, 90, 99, 92, 35, 69, 6, 34, 29 |
     60, 14, 96, 86, 70, 32, 1, 65, 17, 12, 92, 41, 28, 40, 40, 31, 10, 91, 94, 95 |
     26, 31, 30, 86, 63, 90, 19, 77, 88, 61, 27, 36, 49, 43, 57, 63, 29, 5, 95, 32 |
     93, 98, 72, 26, 97, 21, 69, 2, 62, 46, 85, 58, 16, 45, 52, 26, 22, 20, 9, 64 |
     76, 45, 20, 1, 83, 6, 62, 97, 56, 14, 83, 48, 61, 56, 6, 57, 76, 41, 25, 88 |
     85, 53, 68, 73, 35, 70, 30, 64, 14, 70, 28, 39, 50, 45, 41, 74, 9, 70, 69, 78 |
     82, 99, 6, 91, 45, 77, 76, 58, 1, 13, 67, 53, 80, 61, 9, 26, 77, 5, 30, 89 |
     99, 57, 73, 46, 49, 84, 12, 1, 81, 87, 22, 72, 97, 87, 56, 48, 59, 29, 88, 89 |
     92, 75, 16, 76, 78, 26, 46, 49, 65, 78, 41, 48, 28, 96, 2, 25, 68, 51, 53, 8 |
     96, 16, 47, 72, 63, 77, 97, 54, 77, 61, 16, 93, 18, 51, 26, 9, 52, 53, 58, 93 |
     57, 59, 53, 91, 27, 67, 93, 79, 74, 6, 23, 96, 47, 55, 54, 52, 68, 62, 46, 31 |
     49, 71, 66, 31, 92, 18, 40, 44, 40, 82, 13, 98, 4, 20, 17, 17, 28, 81, 13, 17 |
     32, 27, 22, 70, 97, 20, 76, 25, 27, 81, 40, 29, 18, 3, 97, 30, 81, 37, 39, 97 |
     55, 17, 9, 22, 6, 29, 65, 16, 5, 49, 50, 57, 21, 37, 3, 53, 26, 48, 31, 84 |
     26, 43, 10, 48, 82, 60, 27, 68, 76, 46, 23, 62, 91, 32, 19, 76, 12, 49, 59, 47 |
     2, 29, 72, 70, 71, 77, 29, 75, 2, 84, 9, 52, 20, 55, 90, 53, 37, 26, 97, 45 |
     74, 4, 99, 82, 94, 14, 48, 22, 27, 58, 70, 61, 33, 52, 60, 87, 35, 70, 18, 88 |
     45, 52, 15, 6, 89, 41, 2, 35, 49, 88, 23, 15, 93, 50, 92, 31, 99, 55, 95, 14 |
     12, 49, 83, 89, 79, 47, 12, 79, 39, 78, 29, 92, 28, 17, 50, 46, 76, 93, 32, 79 |
     5, 61, 11, 19, 60, 71, 34, 47, 18, 36, 2, 4, 40, 78, 34, 89, 16, 81, 73, 69 |
     44, 74, 67, 15, 90, 81, 95, 26, 76, 30, 36, 90, 26, 76, 43, 19, 96, 26, 95, 28 |
     25, 90, 33, 93, 52, 63, 29, 60, 81, 91, 21, 64, 6, 77, 71, 81, 31, 94, 1, 34 |
     82, 79, 67, 60, 54, 4, 31, 89, 44, 26, 84, 59, 81, 89, 74, 91, 70, 91, 58, 15 |
     82, 61, 43, 69, 44, 54, 18, 70, 90, 49, 86, 97, 28, 38, 1, 74, 41, 26, 79, 35 |
     3, 59, 82, 24, 26, 17, 95, 39, 30, 8, 39, 75, 7, 45, 31, 41, 12, 86, 52, 6 |
     74, 82, 92, 76, 55, 14, 62, 71, 14, 28, 99, 24, 62, 96, 38, 17, 11, 88, 88, 88 |
     34, 29, 19, 83, 16, 30, 94, 80, 69, 44, 68, 79, 63, 49, 59, 42, 88, 40, 12, 78 |
     43, 56, 73, 88, 71, 73, 6, 67, 99, 97, 33, 18, 35, 76, 91, 24, 31, 88, 61, 51 |
     48, 17, 65, 57, 98, 32, 73, 94, 8, 93, 50, 73, 71, 29, 37, 58, 82, 54, 94, 39 |
     13, 29, 49, 38, 38, 51, 48, 21, 7, 45, 98, 81, 61, 99, 59, 50, 25, 89, 70, 89 |
     46, 10, 71, 77, 82, 48, 42, 67, 65, 16, 7, 70, 11, 59, 44, 48, 67, 9, 69, 94 |
     87, 87, 29, 32, 83, 27, 83, 91, 90, 88, 91, 83, 16, 49, 29, 96, 7, 12, 99, 45 |
     41, 69, 36, 1, 77, 49, 90, 29, 95, 55, 57, 33, 77, 85, 17, 81, 26, 98, 84, 36 |
     16, 13, 22, 38, 58, 69, 40, 36, 65, 87, 37, 30, 91, 86, 64, 30, 7, 87, 61, 30 |
     17, 25, 50, 59, 5, 43, 33, 64, 79, 47, 80, 58, 50, 55, 17, 45, 33, 30, 10, 74 |
     88, 91, 26, 82, 97, 92, 68, 58, 20, 32, 70, 8, 47, 37, 16, 85, 34, 5, 12, 56 |
     49, 39, 73, 18, 77, 72, 86, 52, 36, 82, 64, 9, 23, 30, 96, 37, 43, 70, 51, 96 |
     18, 27, 76, 20, 72, 51, 8, 38, 40, 28, 29, 17, 74, 14, 3, 50, 76, 87, 69, 82 |
     35, 31, 10, 85, 43, 62, 92, 99, 15, 93, 91, 82, 83, 48, 78, 69, 44, 91, 48, 21 |
     87, 27, 81, 88, 90, 21, 50, 95, 99, 80, 91, 13, 4, 49, 70, 49, 7, 4, 72, 86 |
     58, 55, 53, 54, 70, 65, 4, 57, 74, 83, 58, 83, 93, 47, 3, 31, 25, 56, 30, 76 |
     72, 8, 85, 25, 76, 12, 93, 92, 6, 71, 58, 66, 85, 39, 72, 82, 85, 33, 22, 55 |
     11, 82, 53, 7, 87, 23, 38, 16, 97, 26, 96, 75, 19, 42, 46, 88, 79, 68, 59, 49 |
     26, 77, 18, 60, 42, 70, 79, 28, 66, 13, 85, 9, 15, 59, 55, 30, 6, 8, 52, 25 |
     76, 59, 92, 40, 24, 74, 32, 97, 86, 34, 10, 78, 12, 57, 88, 5, 57, 84, 96, 51 |
     4, 87, 47, 49, 22, 15, 87, 82, 66, 9, 60, 65, 51, 75, 17, 90, 76, 79, 94, 70 |
     25, 84, 34, 91, 82, 95, 79, 64, 38, 71, 97, 60, 16, 87, 20, 24, 46, 73, 8, 61 |];

mc = [| 16, 3, 19, 13, 1, 12, 14, 10, 8, 11, 9, 5, 20, 6, 15, 4, 18, 17, 2, 7 |
      16, 9, 6, 12, 15, 11, 20, 18, 14, 8, 1, 4, 7, 2, 3, 13, 19, 17, 10, 5 |
      2, 7, 12, 20, 13, 1, 19, 18, 8, 6, 11, 14, 15, 17, 4, 10, 9, 3, 5, 16 |
      4, 14, 9, 2, 3, 15, 7, 6, 19, 12, 8, 20, 16, 11, 18, 5, 1, 13, 17, 10 |
      5, 1, 15, 16, 17, 18, 13, 9, 6, 20, 4, 3, 8, 12, 11, 19, 2, 10, 14, 7 |
      13, 9, 5, 7, 18, 19, 11, 4, 16, 3, 12, 20, 10, 15, 2, 1, 17, 6, 14, 8 |
      11, 15, 6, 2, 7, 16, 9, 8, 17, 12, 20, 18, 13, 4, 19, 10, 1, 3, 14, 5 |
      12, 9, 15, 3, 20, 14, 5, 16, 6, 19, 10, 7, 18, 4, 13, 17, 1, 8, 2, 11 |
      2, 16, 13, 19, 20, 15, 5, 18, 14, 10, 3, 12, 11, 8, 7, 6, 17, 4, 9, 1 |
      4, 3, 12, 10, 20, 5, 16, 14, 2, 7, 19, 6, 8, 17, 11, 1, 18, 13, 9, 15 |
      10, 1, 8, 7, 15, 16, 18, 5, 3, 14, 19, 6, 17, 20, 9, 2, 12, 13, 4, 11 |
      16, 10, 5, 3, 20, 2, 15, 13, 14, 8, 4, 17, 1, 12, 19, 18, 7, 6, 11, 9 |
      17, 13, 12, 19, 20, 2, 5, 11, 6, 14, 8, 18, 15, 16, 4, 7, 3, 10, 1, 9 |
      11, 6, 19, 20, 18, 12, 13, 3, 9, 4, 10, 8, 17, 14, 16, 5, 1, 7, 2, 15 |
      2, 6, 4, 5, 13, 15, 3, 10, 11, 14, 17, 1, 7, 19, 12, 16, 8, 20, 18, 9 |
      5, 4, 2, 19, 9, 16, 11, 14, 15, 8, 12, 18, 3, 10, 7, 17, 6, 20, 1, 13 |
      4, 6, 20, 11, 14, 13, 15, 18, 8, 9, 1, 3, 19, 17, 10, 2, 7, 12, 5, 16 |
      2, 6, 12, 17, 5, 20, 11, 15, 7, 14, 18, 16, 3, 1, 13, 19, 4, 8, 9, 10 |
      7, 13, 4, 9, 6, 10, 15, 19, 5, 17, 14, 20, 11, 3, 2, 8, 12, 1, 18, 16 |
      7, 3, 8, 20, 12, 17, 13, 1, 16, 4, 18, 5, 15, 19, 6, 11, 10, 9, 2, 14 |
      3, 11, 20, 16, 18, 17, 9, 10, 12, 5, 8, 6, 4, 19, 15, 14, 1, 7, 2, 13 |
      14, 18, 19, 11, 3, 20, 10, 5, 4, 7, 13, 6, 2, 1, 15, 17, 12, 8, 16, 9 |
      12, 17, 19, 4, 9, 7, 5, 1, 8, 10, 2, 3, 13, 14, 20, 6, 16, 18, 11, 15 |
      6, 15, 12, 10, 4, 20, 7, 18, 5, 8, 17, 14, 13, 9, 3, 19, 11, 2, 16, 1 |
      3, 1, 11, 17, 4, 2, 10, 7, 18, 8, 12, 14, 19, 13, 6, 5, 16, 15, 20, 9 |
      11, 17, 1, 7, 18, 8, 12, 9, 13, 20, 19, 10, 15, 5, 6, 16, 2, 14, 4, 3 |
      10, 2, 13, 5, 4, 15, 20, 9, 17, 1, 12, 8, 6, 14, 19, 7, 3, 11, 16, 18 |
      2, 4, 19, 1, 12, 10, 7, 8, 13, 11, 18, 16, 17, 6, 9, 14, 5, 3, 20, 15 |
      20, 4, 15, 6, 10, 3, 18, 1, 8, 11, 16, 13, 5, 14, 19, 17, 9, 2, 7, 12 |
      13, 17, 3, 8, 1, 14, 15, 4, 10, 11, 5, 6, 12, 18, 16, 2, 7, 9, 20, 19 |
      7, 14, 11, 12, 9, 10, 17, 1, 20, 8, 6, 13, 5, 4, 3, 19, 16, 18, 2, 15 |
      16, 9, 11, 20, 15, 7, 17, 1, 8, 5, 2, 6, 3, 13, 14, 4, 18, 19, 10, 12 |
      10, 12, 1, 6, 17, 9, 5, 4, 20, 15, 19, 16, 14, 3, 8, 7, 13, 18, 2, 11 |
      2, 19, 5, 4, 11, 18, 1, 16, 6, 15, 12, 10, 8, 3, 13, 20, 17, 9, 14, 7 |
      13, 12, 4, 5, 17, 16, 1, 2, 20, 11, 9, 6, 7, 15, 14, 8, 19, 18, 3, 10 |
      17, 9, 13, 5, 1, 16, 11, 20, 8, 7, 3, 12, 4, 15, 2, 19, 14, 18, 10, 6 |
      11, 19, 3, 9, 5, 17, 13, 2, 7, 20, 10, 1, 8, 16, 4, 6, 18, 14, 15, 12 |
      11, 6, 8, 13, 9, 14, 7, 5, 19, 18, 17, 1, 2, 12, 10, 16, 4, 3, 15, 20 |
      1, 13, 20, 19, 10, 14, 16, 18, 15, 7, 3, 9, 6, 4, 5, 2, 11, 12, 17, 8 |
      4, 18, 5, 8, 20, 19, 10, 2, 16, 13, 7, 9, 14, 1, 15, 11, 6, 3, 17, 12 |
      1, 12, 2, 15, 8, 7, 11, 5, 16, 19, 18, 4, 14, 10, 20, 3, 9, 13, 6, 17 |
      8, 10, 14, 5, 3, 4, 12, 18, 16, 1, 7, 17, 13, 19, 2, 11, 20, 6, 9, 15 |
      17, 5, 14, 1, 6, 13, 12, 16, 8, 4, 20, 9, 19, 15, 7, 18, 10, 11, 2, 3 |
      6, 17, 3, 11, 8, 12, 19, 20, 5, 1, 4, 13, 18, 7, 9, 16, 14, 2, 15, 10 |
      18, 15, 3, 8, 2, 1, 17, 11, 9, 20, 13, 6, 12, 7, 14, 10, 16, 4, 19, 5 |
      20, 13, 7, 5, 8, 14, 18, 19, 2, 12, 3, 1, 4, 6, 15, 11, 9, 17, 10, 16 |
      14, 6, 20, 10, 13, 8, 11, 17, 18, 7, 9, 3, 2, 1, 4, 15, 16, 12, 5, 19 |
      6, 1, 17, 16, 14, 7, 3, 13, 4, 2, 20, 18, 5, 10, 9, 8, 15, 11, 19, 12 |
      5, 15, 16, 11, 13, 10, 18, 4, 6, 12, 17, 3, 2, 9, 1, 19, 8, 7, 20, 14 |
      12, 6, 11, 10, 18, 7, 17, 20, 5, 13, 8, 3, 15, 4, 1, 9, 19, 16, 2, 14 |
      18, 11, 6, 9, 3, 16, 12, 15, 20, 19, 2, 17, 13, 8, 1, 14, 10, 4, 5, 7 |
      9, 15, 2, 1, 12, 14, 4, 5, 16, 17, 19, 7, 11, 13, 3, 10, 20, 8, 18, 6 |
      1, 15, 14, 4, 5, 6, 13, 9, 20, 17, 10, 7, 18, 19, 8, 11, 12, 16, 2, 3 |
      2, 19, 1, 5, 3, 11, 15, 12, 17, 13, 4, 18, 14, 6, 20, 10, 16, 7, 9, 8 |
      10, 8, 16, 5, 18, 14, 17, 3, 13, 7, 12, 20, 2, 6, 11, 4, 1, 19, 9, 15 |
      11, 18, 12, 16, 19, 9, 7, 4, 13, 3, 15, 6, 17, 8, 5, 1, 14, 20, 2, 10 |
      16, 19, 3, 9, 11, 18, 10, 20, 17, 1, 8, 2, 14, 13, 5, 6, 15, 4, 12, 7 |
      20, 12, 10, 19, 13, 7, 17, 4, 1, 14, 16, 8, 5, 9, 6, 11, 3, 15, 2, 18 |
      2, 19, 12, 17, 9, 16, 6, 10, 14, 1, 8, 18, 3, 5, 20, 7, 4, 15, 11, 13 |
      16, 17, 5, 11, 8, 10, 2, 3, 4, 13, 19, 7, 14, 1, 6, 20, 15, 12, 18, 9 |
      18, 3, 17, 7, 4, 2, 19, 9, 13, 15, 6, 1, 12, 11, 8, 10, 14, 20, 5, 16 |
      17, 10, 14, 18, 2, 4, 13, 1, 15, 7, 3, 9, 5, 12, 6, 11, 8, 16, 20, 19 |
      13, 5, 15, 12, 6, 19, 17, 10, 9, 20, 7, 18, 4, 8, 3, 11, 1, 16, 14, 2 |
      9, 6, 2, 5, 10, 7, 15, 3, 16, 11, 4, 18, 17, 1, 19, 20, 12, 13, 14, 8 |
      18, 1, 8, 20, 17, 2, 15, 5, 14, 16, 19, 3, 6, 13, 10, 11, 7, 4, 12, 9 |
      17, 15, 5, 4, 1, 9, 12, 19, 16, 20, 3, 6, 11, 18, 2, 13, 7, 8, 14, 10 |
      19, 7, 9, 5, 2, 12, 8, 13, 10, 6, 16, 20, 3, 11, 15, 14, 4, 1, 17, 18 |
      14, 6, 16, 17, 13, 3, 7, 12, 15, 4, 11, 10, 18, 9, 2, 8, 20, 19, 1, 5 |
      7, 11, 15, 20, 19, 10, 13, 9, 6, 12, 3, 2, 8, 1, 14, 18, 5, 17, 4, 16 |
      10, 8, 5, 16, 13, 20, 12, 19, 14, 4, 7, 6, 11, 18, 17, 15, 1, 9, 3, 2 |
      13, 20, 15, 11, 7, 5, 19, 17, 3, 12, 2, 10, 6, 8, 1, 18, 16, 4, 14, 9 |
      15, 5, 2, 20, 13, 18, 6, 19, 16, 9, 3, 4, 8, 17, 1, 10, 12, 14, 7, 11 |
      18, 3, 13, 8, 17, 12, 15, 7, 19, 2, 9, 4, 1, 10, 11, 16, 6, 5, 20, 14 |
      17, 11, 6, 8, 20, 7, 15, 16, 4, 19, 10, 18, 13, 1, 5, 3, 9, 14, 2, 12 |
      9, 2, 8, 16, 7, 4, 6, 18, 14, 10, 19, 11, 20, 13, 5, 12, 15, 1, 17, 3 |
      4, 12, 2, 20, 3, 9, 8, 5, 17, 6, 16, 11, 10, 14, 15, 18, 1, 7, 13, 19 |
      7, 11, 18, 19, 8, 20, 13, 1, 6, 2, 15, 14, 12, 16, 17, 9, 10, 5, 4, 3 |
      17, 4, 5, 15, 18, 19, 14, 13, 6, 3, 9, 10, 16, 12, 11, 1, 20, 7, 2, 8 |
      18, 4, 15, 10, 6, 16, 8, 3, 1, 2, 12, 14, 19, 9, 13, 5, 20, 7, 17, 11 |
      8, 7, 2, 20, 9, 18, 14, 1, 4, 10, 3, 6, 15, 16, 11, 13, 12, 5, 17, 19 |
      15, 8, 6, 14, 17, 4, 19, 1, 3, 2, 12, 7, 10, 18, 20, 13, 16, 11, 5, 9 |
      18, 8, 12, 16, 1, 7, 5, 2, 11, 13, 17, 10, 14, 9, 4, 15, 3, 19, 20, 6 |
      4, 19, 5, 10, 11, 13, 6, 9, 20, 17, 16, 14, 7, 15, 12, 3, 18, 1, 8, 2 |
      9, 17, 14, 6, 5, 10, 16, 19, 4, 12, 15, 11, 20, 8, 18, 13, 2, 7, 1, 3 |
      4, 8, 2, 19, 10, 20, 15, 5, 17, 14, 3, 7, 11, 6, 1, 16, 12, 9, 13, 18 |
      16, 12, 5, 11, 17, 18, 13, 6, 7, 15, 19, 2, 8, 1, 10, 4, 20, 14, 9, 3 |
      11, 9, 3, 6, 8, 12, 15, 17, 14, 2, 18, 13, 16, 5, 19, 1, 7, 4, 10, 20 |
      2, 12, 17, 9, 18, 19, 1, 10, 7, 16, 8, 3, 11, 20, 6, 15, 14, 5, 13, 4 |
      6, 7, 19, 16, 10, 18, 5, 13, 8, 14, 15, 11, 4, 9, 2, 3, 20, 1, 17, 12 |
      16, 4, 7, 1, 13, 11, 3, 5, 9, 2, 10, 19, 14, 20, 17, 18, 15, 8, 12, 6 |
      15, 5, 7, 3, 8, 11, 1, 4, 17, 19, 16, 10, 13, 2, 9, 20, 12, 14, 6, 18 |
      16, 19, 5, 12, 15, 17, 3, 1, 14, 10, 9, 4, 6, 8, 7, 11, 20, 2, 13, 18 |
      5, 14, 1, 13, 2, 6, 20, 15, 11, 16, 4, 9, 10, 3, 19, 18, 17, 8, 7, 12 |
      3, 20, 17, 12, 15, 14, 6, 8, 2, 19, 1, 13, 16, 18, 10, 7, 11, 5, 9, 4 |
      8, 14, 16, 10, 2, 13, 4, 15, 17, 11, 1, 5, 12, 20, 7, 6, 3, 19, 18, 9 |
      7, 10, 14, 20, 9, 12, 3, 8, 4, 1, 6, 13, 11, 19, 5, 16, 18, 2, 15, 17 |
      13, 7, 6, 9, 2, 17, 16, 20, 18, 14, 8, 5, 12, 15, 10, 11, 1, 4, 19, 3 |
      13, 18, 17, 6, 8, 16, 7, 3, 19, 12, 2, 20, 11, 4, 14, 1, 15, 9, 5, 10 |
      8, 5, 18, 19, 4, 12, 16, 3, 9, 17, 11, 1, 6, 10, 15, 13, 7, 2, 20, 14 |
      18, 13, 1, 17, 7, 8, 14, 2, 6, 3, 19, 12, 9, 20, 16, 11, 5, 15, 10, 4 |];
