n = 10;
m = 10;

d = [| 44, 53, 73, 32, 3, 73, 56, 40, 96, 56 |
     67, 40, 39, 88, 68, 2, 13, 77, 77, 34 |
     7, 25, 27, 43, 80, 25, 45, 59, 8, 75 |
     83, 47, 26, 25, 80, 68, 90, 8, 95, 52 |
     75, 51, 90, 1, 21, 18, 50, 31, 44, 67 |
     65, 34, 27, 44, 50, 2, 97, 78, 1, 59 |
     82, 64, 91, 34, 63, 67, 75, 38, 8, 56 |
     72, 73, 37, 2, 59, 3, 90, 22, 54, 59 |
     65, 29, 16, 37, 3, 98, 72, 28, 36, 21 |
     83, 69, 78, 29, 38, 68, 35, 15, 4, 60 |];

mc = [| 3, 1, 10, 4, 8, 5, 2, 7, 6, 9 |
      5, 9, 2, 7, 4, 8, 3, 10, 6, 1 |
      4, 8, 7, 6, 3, 10, 1, 2, 9, 5 |
      6, 9, 3, 8, 10, 2, 7, 1, 4, 5 |
      8, 2, 7, 5, 4, 6, 3, 1, 10, 9 |
      4, 3, 6, 9, 1, 7, 8, 10, 5, 2 |
      4, 8, 9, 3, 6, 1, 5, 7, 10, 2 |
      3, 7, 6, 10, 9, 2, 8, 1, 4, 5 |
      8, 10, 4, 5, 3, 6, 1, 7, 9, 2 |
      8, 1, 9, 2, 3, 4, 5, 7, 6, 10 |];
