n = 30;
m = 20;

d = [| 32, 8, 20, 7, 93, 28, 30, 49, 13, 61, 6, 97, 8, 13, 36, 83, 21, 17, 63, 24 |
     72, 77, 73, 90, 10, 72, 51, 92, 26, 77, 64, 86, 90, 76, 52, 7, 98, 10, 36, 55 |
     16, 66, 1, 71, 88, 85, 39, 59, 95, 2, 91, 27, 52, 3, 75, 54, 76, 18, 25, 3 |
     13, 26, 31, 34, 61, 96, 43, 15, 26, 90, 31, 27, 12, 12, 31, 22, 19, 8, 27, 15 |
     2, 23, 98, 80, 24, 52, 22, 6, 61, 87, 77, 19, 31, 70, 78, 91, 81, 13, 66, 14 |
     96, 42, 67, 19, 69, 10, 66, 39, 59, 52, 29, 17, 26, 10, 84, 85, 63, 50, 3, 66 |
     84, 46, 49, 98, 21, 32, 18, 40, 61, 75, 37, 86, 86, 38, 30, 35, 24, 54, 35, 25 |
     4, 91, 22, 27, 21, 39, 75, 91, 23, 94, 73, 84, 8, 23, 86, 47, 22, 3, 16, 44 |
     66, 21, 31, 42, 12, 5, 32, 29, 75, 96, 2, 59, 62, 81, 99, 66, 7, 4, 8, 98 |
     39, 14, 68, 15, 19, 34, 75, 33, 43, 36, 83, 99, 28, 41, 21, 25, 99, 23, 95, 10 |
     82, 19, 44, 90, 26, 77, 77, 52, 18, 47, 32, 60, 58, 60, 48, 59, 59, 72, 68, 47 |
     44, 78, 52, 96, 68, 23, 77, 48, 24, 8, 14, 29, 62, 44, 58, 77, 75, 86, 2, 49 |
     34, 74, 64, 42, 40, 28, 59, 70, 72, 95, 56, 19, 21, 61, 84, 3, 29, 91, 66, 91 |
     67, 4, 88, 91, 7, 10, 7, 78, 97, 30, 43, 32, 60, 51, 97, 69, 12, 81, 34, 44 |
     19, 94, 86, 51, 87, 69, 36, 74, 95, 27, 23, 86, 18, 67, 64, 38, 11, 15, 97, 87 |
     42, 78, 65, 79, 99, 41, 77, 55, 43, 6, 12, 77, 81, 73, 95, 13, 57, 60, 6, 60 |
     78, 98, 7, 83, 14, 6, 71, 39, 25, 3, 75, 10, 34, 31, 87, 46, 3, 75, 40, 1 |
     28, 83, 58, 44, 8, 14, 27, 95, 49, 6, 17, 24, 27, 47, 14, 54, 10, 99, 77, 83 |
     3, 9, 67, 22, 47, 26, 28, 9, 6, 39, 36, 8, 86, 48, 79, 84, 80, 60, 96, 52 |
     22, 75, 88, 87, 44, 97, 25, 42, 64, 84, 41, 29, 14, 54, 46, 52, 38, 83, 4, 29 |
     7, 96, 46, 25, 41, 79, 43, 7, 96, 41, 36, 99, 99, 88, 7, 12, 11, 1, 20, 72 |
     52, 4, 24, 39, 21, 47, 50, 80, 88, 26, 12, 39, 61, 29, 68, 75, 22, 16, 38, 75 |
     9, 6, 5, 8, 90, 23, 57, 31, 12, 34, 10, 21, 66, 60, 61, 96, 74, 5, 81, 90 |
     67, 70, 99, 15, 74, 93, 42, 89, 41, 61, 10, 14, 51, 97, 45, 70, 61, 97, 65, 94 |
     27, 26, 84, 63, 65, 40, 71, 66, 16, 21, 37, 17, 72, 48, 3, 70, 67, 29, 84, 87 |
     68, 11, 24, 12, 25, 89, 16, 45, 44, 48, 75, 2, 46, 72, 36, 56, 60, 60, 60, 17 |
     30, 73, 46, 80, 41, 46, 78, 89, 60, 76, 28, 97, 24, 64, 58, 60, 63, 25, 55, 66 |
     18, 55, 42, 10, 3, 59, 43, 72, 67, 41, 68, 12, 55, 27, 10, 23, 27, 64, 67, 15 |
     73, 94, 27, 8, 8, 55, 87, 86, 49, 22, 91, 8, 76, 87, 75, 95, 23, 4, 51, 86 |
     14, 55, 78, 55, 16, 8, 18, 34, 80, 64, 54, 74, 33, 56, 33, 81, 27, 26, 4, 24 |];

mc = [| 15, 1, 5, 16, 18, 8, 13, 11, 10, 3, 17, 2, 20, 19, 9, 7, 12, 14, 6, 4 |
      14, 7, 15, 12, 5, 6, 11, 10, 19, 9, 17, 8, 18, 3, 20, 4, 13, 1, 16, 2 |
      1, 6, 2, 9, 18, 14, 12, 20, 3, 7, 13, 15, 5, 17, 11, 16, 8, 4, 19, 10 |
      19, 11, 1, 18, 13, 17, 6, 7, 15, 3, 9, 5, 4, 20, 12, 10, 2, 14, 16, 8 |
      17, 16, 5, 20, 6, 19, 4, 9, 14, 7, 12, 18, 8, 1, 15, 2, 13, 3, 10, 11 |
      13, 4, 5, 12, 7, 9, 10, 16, 3, 2, 20, 1, 17, 15, 11, 8, 14, 19, 6, 18 |
      8, 19, 15, 18, 6, 14, 16, 7, 5, 3, 2, 20, 13, 1, 4, 12, 11, 10, 9, 17 |
      8, 13, 19, 3, 16, 5, 6, 4, 2, 14, 17, 9, 20, 10, 1, 18, 11, 15, 7, 12 |
      7, 2, 16, 5, 6, 18, 3, 11, 17, 14, 1, 12, 10, 20, 4, 19, 15, 13, 8, 9 |
      7, 2, 18, 10, 1, 11, 13, 16, 14, 17, 8, 20, 6, 12, 19, 4, 9, 5, 3, 15 |
      18, 4, 1, 12, 19, 9, 13, 16, 11, 17, 7, 8, 5, 6, 14, 15, 3, 10, 20, 2 |
      12, 1, 4, 6, 8, 14, 11, 13, 3, 19, 10, 17, 5, 20, 2, 7, 15, 18, 9, 16 |
      13, 14, 10, 7, 6, 2, 15, 9, 19, 11, 16, 5, 18, 4, 17, 1, 8, 20, 12, 3 |
      17, 2, 15, 18, 12, 10, 13, 5, 20, 3, 8, 6, 7, 1, 4, 9, 11, 19, 14, 16 |
      15, 11, 13, 7, 9, 19, 10, 3, 4, 5, 2, 8, 1, 17, 6, 12, 14, 16, 20, 18 |
      15, 11, 1, 19, 13, 2, 4, 6, 12, 10, 14, 3, 16, 18, 20, 9, 5, 8, 7, 17 |
      6, 4, 20, 7, 17, 8, 19, 3, 15, 1, 16, 5, 14, 2, 13, 9, 18, 10, 12, 11 |
      7, 19, 16, 14, 13, 1, 20, 5, 11, 10, 12, 3, 2, 9, 8, 6, 15, 18, 4, 17 |
      12, 19, 17, 6, 7, 10, 11, 18, 20, 8, 14, 13, 3, 16, 5, 1, 15, 4, 9, 2 |
      6, 15, 12, 1, 7, 20, 14, 18, 2, 9, 16, 3, 19, 10, 11, 4, 17, 13, 5, 8 |
      5, 15, 3, 19, 12, 18, 7, 10, 6, 20, 9, 17, 1, 4, 8, 2, 16, 13, 14, 11 |
      1, 12, 14, 15, 10, 19, 9, 8, 11, 7, 13, 2, 3, 20, 4, 5, 16, 17, 18, 6 |
      1, 8, 19, 4, 2, 20, 5, 11, 10, 13, 9, 14, 6, 12, 18, 3, 16, 15, 7, 17 |
      4, 12, 9, 10, 17, 11, 20, 5, 8, 3, 14, 2, 1, 6, 15, 13, 7, 19, 18, 16 |
      1, 4, 3, 14, 12, 13, 5, 8, 2, 16, 9, 17, 7, 11, 15, 18, 20, 6, 10, 19 |
      2, 5, 7, 8, 18, 10, 17, 19, 13, 16, 15, 14, 11, 3, 9, 20, 6, 12, 4, 1 |
      6, 8, 7, 17, 19, 20, 2, 12, 15, 4, 14, 1, 16, 13, 11, 18, 10, 5, 9, 3 |
      18, 13, 9, 8, 16, 20, 7, 17, 14, 1, 10, 12, 11, 6, 2, 4, 15, 5, 19, 3 |
      20, 6, 1, 9, 8, 2, 17, 19, 4, 3, 10, 16, 15, 11, 14, 7, 12, 18, 5, 13 |
      20, 11, 3, 15, 6, 4, 19, 10, 7, 14, 1, 2, 8, 13, 9, 5, 17, 12, 16, 18 |];
