n = 50;
m = 15;

d = [| 86, 8, 55, 81, 76, 81, 19, 35, 30, 15, 27, 98, 4, 5, 14 |
     82, 87, 26, 20, 7, 36, 45, 84, 94, 7, 82, 43, 74, 52, 21 |
     33, 36, 83, 74, 41, 67, 83, 11, 33, 98, 79, 36, 97, 79, 22 |
     27, 52, 31, 38, 35, 50, 8, 92, 6, 41, 30, 63, 4, 15, 13 |
     67, 7, 75, 28, 14, 83, 98, 98, 13, 69, 12, 29, 70, 61, 42 |
     33, 78, 47, 13, 30, 70, 56, 81, 24, 7, 36, 6, 6, 54, 1 |
     15, 56, 71, 33, 58, 2, 9, 19, 78, 95, 81, 21, 11, 13, 79 |
     40, 82, 94, 66, 26, 27, 63, 70, 21, 37, 33, 94, 93, 21, 58 |
     49, 63, 45, 45, 63, 10, 95, 10, 53, 68, 76, 46, 91, 25, 48 |
     15, 73, 3, 11, 27, 78, 16, 85, 92, 89, 68, 88, 89, 52, 45 |
     75, 56, 92, 7, 16, 55, 65, 1, 49, 65, 26, 66, 51, 81, 78 |
     99, 57, 72, 36, 57, 87, 58, 31, 97, 20, 71, 67, 4, 14, 96 |
     22, 48, 63, 55, 26, 19, 86, 52, 5, 86, 73, 56, 54, 32, 21 |
     83, 39, 92, 91, 81, 34, 78, 47, 95, 2, 53, 85, 96, 80, 80 |
     46, 12, 41, 50, 33, 41, 8, 55, 66, 81, 73, 53, 12, 23, 98 |
     73, 77, 41, 48, 68, 3, 85, 19, 67, 63, 64, 65, 62, 26, 23 |
     68, 33, 66, 71, 27, 1, 11, 28, 79, 46, 95, 55, 27, 95, 78 |
     59, 48, 18, 47, 37, 35, 76, 85, 60, 38, 71, 43, 33, 94, 96 |
     8, 75, 80, 89, 84, 69, 38, 7, 31, 65, 66, 41, 56, 2, 26 |
     13, 99, 38, 91, 24, 33, 75, 74, 10, 53, 80, 38, 93, 43, 37 |
     36, 75, 68, 83, 45, 32, 66, 19, 2, 85, 74, 35, 24, 42, 18 |
     50, 73, 51, 38, 86, 56, 58, 22, 31, 66, 10, 22, 51, 52, 98 |
     89, 26, 10, 58, 84, 77, 37, 57, 26, 87, 43, 64, 41, 2, 9 |
     60, 88, 94, 83, 57, 93, 78, 32, 26, 60, 18, 87, 29, 10, 78 |
     5, 40, 65, 84, 84, 56, 87, 95, 75, 25, 40, 4, 27, 54, 17 |
     73, 73, 32, 46, 15, 96, 72, 57, 87, 24, 2, 99, 49, 21, 92 |
     46, 38, 93, 33, 65, 13, 47, 79, 46, 20, 13, 29, 47, 34, 66 |
     11, 27, 36, 64, 94, 2, 21, 2, 55, 7, 26, 15, 20, 81, 67 |
     65, 99, 21, 36, 52, 72, 21, 83, 31, 74, 41, 37, 82, 1, 52 |
     17, 87, 80, 27, 40, 33, 87, 16, 41, 59, 88, 66, 37, 77, 70 |
     91, 89, 30, 31, 74, 83, 35, 92, 34, 14, 77, 59, 22, 3, 46 |
     33, 64, 89, 9, 44, 58, 1, 81, 13, 97, 46, 13, 76, 61, 8 |
     44, 32, 70, 73, 82, 99, 41, 37, 57, 68, 97, 16, 69, 82, 38 |
     76, 19, 4, 19, 14, 87, 61, 12, 10, 85, 92, 97, 89, 53, 60 |
     83, 45, 3, 94, 83, 70, 78, 45, 5, 43, 19, 81, 66, 47, 3 |
     98, 89, 43, 5, 12, 41, 26, 65, 52, 1, 47, 24, 98, 11, 71 |
     40, 44, 57, 40, 94, 24, 62, 6, 11, 54, 10, 78, 96, 8, 16 |
     86, 32, 69, 73, 36, 47, 40, 94, 71, 28, 9, 41, 60, 66, 91 |
     52, 23, 72, 28, 87, 70, 43, 96, 38, 5, 45, 3, 29, 40, 49 |
     74, 60, 29, 8, 46, 66, 64, 83, 95, 46, 39, 18, 25, 84, 23 |
     68, 95, 41, 75, 95, 74, 81, 23, 25, 22, 81, 46, 84, 34, 11 |
     56, 13, 13, 85, 87, 99, 52, 56, 2, 91, 90, 63, 33, 74, 79 |
     55, 65, 81, 66, 96, 75, 41, 47, 26, 32, 59, 80, 48, 23, 74 |
     44, 12, 69, 72, 13, 1, 50, 36, 64, 88, 47, 8, 68, 24, 13 |
     45, 51, 57, 72, 4, 48, 66, 26, 14, 6, 70, 53, 37, 21, 71 |
     8, 36, 53, 43, 11, 76, 53, 77, 31, 79, 53, 80, 51, 97, 1 |
     31, 66, 4, 94, 97, 43, 40, 26, 19, 40, 16, 39, 75, 3, 4 |
     41, 94, 26, 52, 74, 67, 92, 14, 84, 34, 63, 25, 40, 5, 88 |
     88, 99, 92, 3, 70, 21, 23, 50, 96, 70, 69, 35, 87, 54, 45 |
     80, 27, 95, 51, 12, 38, 76, 97, 35, 17, 92, 54, 94, 36, 89 |];

mc = [| 8, 2, 11, 13, 1, 6, 3, 10, 14, 5, 4, 7, 9, 12, 15 |
      8, 6, 7, 9, 2, 12, 14, 10, 4, 13, 11, 3, 5, 1, 15 |
      15, 9, 13, 1, 2, 10, 6, 8, 12, 14, 3, 5, 11, 7, 4 |
      13, 8, 7, 4, 14, 1, 3, 10, 2, 11, 5, 9, 6, 15, 12 |
      12, 7, 5, 15, 6, 8, 3, 11, 14, 1, 10, 9, 13, 2, 4 |
      3, 11, 13, 6, 12, 8, 15, 14, 4, 1, 2, 9, 10, 5, 7 |
      10, 1, 15, 12, 14, 3, 8, 11, 2, 5, 4, 7, 6, 13, 9 |
      1, 6, 12, 11, 3, 5, 14, 15, 2, 7, 10, 4, 9, 8, 13 |
      2, 7, 8, 15, 3, 1, 10, 11, 9, 4, 12, 14, 13, 6, 5 |
      13, 10, 12, 6, 8, 7, 9, 4, 1, 15, 11, 5, 2, 14, 3 |
      14, 7, 11, 3, 13, 9, 6, 5, 12, 15, 8, 2, 4, 1, 10 |
      12, 9, 1, 2, 15, 11, 4, 6, 13, 14, 5, 3, 10, 8, 7 |
      11, 6, 3, 12, 14, 10, 9, 7, 15, 8, 1, 2, 5, 4, 13 |
      10, 9, 11, 13, 12, 8, 2, 3, 1, 4, 14, 5, 7, 6, 15 |
      5, 9, 12, 8, 13, 11, 1, 15, 3, 14, 10, 4, 7, 2, 6 |
      9, 14, 3, 6, 11, 7, 10, 15, 4, 13, 12, 1, 5, 8, 2 |
      13, 7, 5, 9, 1, 11, 4, 10, 2, 3, 8, 14, 15, 12, 6 |
      4, 2, 5, 10, 15, 1, 7, 13, 6, 8, 11, 12, 14, 9, 3 |
      13, 15, 5, 2, 10, 6, 1, 11, 4, 7, 3, 8, 14, 12, 9 |
      12, 9, 6, 8, 15, 3, 7, 13, 1, 2, 4, 10, 11, 14, 5 |
      4, 5, 3, 10, 9, 13, 8, 11, 2, 7, 14, 12, 6, 1, 15 |
      12, 14, 10, 9, 7, 13, 8, 5, 4, 2, 6, 11, 1, 15, 3 |
      14, 7, 10, 5, 6, 8, 12, 4, 3, 2, 11, 13, 1, 15, 9 |
      1, 4, 13, 15, 6, 14, 8, 7, 10, 3, 2, 12, 9, 5, 11 |
      1, 3, 13, 4, 2, 11, 8, 15, 14, 10, 9, 5, 12, 7, 6 |
      11, 4, 8, 1, 3, 9, 6, 5, 12, 15, 14, 13, 7, 2, 10 |
      4, 14, 9, 3, 12, 2, 7, 8, 15, 11, 5, 6, 10, 1, 13 |
      14, 12, 13, 2, 9, 7, 11, 1, 10, 4, 5, 3, 6, 15, 8 |
      7, 10, 5, 3, 14, 15, 1, 4, 6, 2, 9, 8, 13, 11, 12 |
      15, 2, 3, 9, 6, 5, 13, 12, 1, 10, 14, 8, 7, 4, 11 |
      1, 12, 11, 14, 13, 3, 2, 10, 15, 9, 7, 8, 6, 5, 4 |
      6, 2, 4, 5, 12, 1, 3, 9, 15, 7, 11, 13, 14, 8, 10 |
      15, 4, 2, 5, 9, 11, 13, 3, 7, 12, 8, 1, 14, 6, 10 |
      3, 6, 12, 8, 10, 9, 14, 11, 15, 4, 7, 13, 5, 1, 2 |
      1, 3, 13, 12, 8, 4, 11, 6, 10, 9, 2, 15, 7, 14, 5 |
      1, 5, 12, 13, 8, 3, 14, 2, 7, 15, 6, 4, 11, 9, 10 |
      15, 4, 8, 3, 6, 1, 11, 13, 14, 7, 5, 2, 12, 9, 10 |
      14, 9, 15, 10, 1, 2, 7, 11, 6, 12, 13, 5, 8, 3, 4 |
      7, 4, 9, 11, 2, 10, 5, 12, 3, 13, 15, 6, 1, 8, 14 |
      13, 5, 2, 11, 10, 1, 9, 3, 12, 4, 15, 8, 14, 7, 6 |
      12, 5, 10, 6, 14, 7, 15, 1, 4, 13, 8, 11, 3, 9, 2 |
      13, 6, 2, 8, 7, 10, 15, 11, 9, 5, 14, 4, 1, 12, 3 |
      14, 6, 11, 13, 7, 4, 12, 1, 3, 2, 5, 9, 15, 10, 8 |
      13, 5, 15, 6, 10, 4, 9, 14, 3, 2, 1, 7, 12, 11, 8 |
      1, 12, 3, 7, 2, 10, 5, 13, 9, 14, 15, 11, 4, 8, 6 |
      4, 15, 6, 14, 7, 12, 5, 8, 3, 1, 2, 10, 11, 9, 13 |
      9, 10, 8, 5, 7, 11, 6, 15, 1, 14, 4, 3, 13, 2, 12 |
      12, 11, 3, 7, 4, 1, 6, 13, 14, 9, 15, 5, 10, 2, 8 |
      12, 6, 7, 8, 14, 15, 4, 2, 1, 13, 9, 3, 11, 10, 5 |
      5, 1, 11, 10, 2, 4, 6, 14, 3, 7, 8, 15, 9, 12, 13 |];
