n = 15;
m = 15;

d = [| 10, 35, 9, 10, 83, 37, 23, 12, 69, 47, 57, 1, 73, 63, 7 |
     46, 78, 62, 53, 60, 97, 5, 12, 12, 16, 58, 74, 13, 34, 75 |
     7, 49, 56, 79, 97, 65, 42, 71, 71, 49, 43, 35, 76, 21, 45 |
     24, 68, 78, 90, 97, 84, 63, 2, 74, 26, 99, 51, 83, 86, 84 |
     61, 70, 36, 49, 99, 63, 44, 65, 96, 63, 45, 16, 50, 53, 18 |
     50, 99, 35, 35, 34, 60, 86, 45, 62, 69, 44, 80, 97, 60, 94 |
     51, 77, 59, 28, 97, 41, 2, 84, 75, 57, 26, 26, 38, 75, 79 |
     34, 37, 19, 15, 84, 59, 79, 28, 95, 50, 33, 3, 93, 30, 7 |
     15, 30, 94, 87, 77, 22, 40, 97, 72, 27, 43, 61, 11, 55, 34 |
     95, 66, 89, 43, 4, 9, 96, 78, 31, 10, 58, 62, 98, 70, 85 |
     82, 37, 41, 68, 47, 37, 89, 67, 85, 19, 71, 58, 87, 8, 1 |
     29, 55, 20, 2, 13, 69, 27, 16, 28, 29, 99, 30, 93, 12, 92 |
     55, 65, 37, 9, 40, 23, 72, 70, 97, 70, 28, 70, 85, 76, 58 |
     94, 78, 57, 48, 5, 72, 54, 19, 71, 35, 91, 95, 42, 91, 51 |
     92, 41, 68, 47, 66, 1, 59, 1, 94, 89, 7, 19, 33, 78, 58 |];

mc = [| 5, 7, 3, 2, 14, 6, 10, 13, 11, 4, 12, 15, 9, 8, 1 |
      2, 13, 6, 5, 12, 9, 14, 15, 10, 11, 1, 8, 7, 4, 3 |
      11, 8, 14, 4, 6, 5, 2, 10, 9, 13, 12, 15, 1, 3, 7 |
      4, 3, 10, 12, 15, 11, 7, 1, 13, 9, 5, 2, 6, 8, 14 |
      11, 1, 15, 10, 5, 14, 7, 8, 2, 12, 3, 4, 9, 13, 6 |
      15, 6, 11, 4, 14, 13, 2, 10, 7, 1, 5, 9, 3, 12, 8 |
      15, 11, 4, 6, 7, 13, 12, 9, 10, 14, 1, 5, 8, 2, 3 |
      9, 4, 1, 7, 8, 2, 15, 12, 13, 10, 5, 3, 14, 11, 6 |
      13, 15, 9, 10, 11, 8, 5, 2, 4, 12, 14, 6, 1, 7, 3 |
      8, 15, 14, 1, 3, 4, 6, 13, 12, 9, 7, 11, 10, 2, 5 |
      15, 3, 1, 10, 6, 9, 5, 11, 8, 4, 13, 7, 2, 12, 14 |
      11, 9, 4, 3, 15, 10, 7, 6, 2, 13, 12, 8, 1, 14, 5 |
      4, 5, 3, 13, 14, 8, 2, 1, 12, 9, 11, 15, 7, 6, 10 |
      6, 4, 3, 14, 5, 12, 10, 9, 13, 7, 1, 8, 11, 15, 2 |
      10, 4, 11, 7, 15, 14, 12, 13, 6, 5, 1, 9, 3, 2, 8 |];
