n = 15;
m = 15;

d = [| 21, 50, 82, 84, 99, 76, 8, 35, 30, 7, 26, 85, 94, 81, 75 |
     6, 46, 59, 32, 84, 16, 19, 4, 9, 9, 34, 79, 32, 65, 47 |
     16, 17, 52, 8, 47, 82, 58, 52, 65, 80, 32, 28, 8, 47, 64 |
     22, 92, 22, 1, 17, 37, 17, 68, 39, 77, 56, 31, 55, 73, 19 |
     75, 10, 47, 92, 31, 16, 66, 14, 85, 29, 21, 35, 44, 98, 68 |
     27, 64, 32, 52, 65, 73, 60, 24, 7, 90, 86, 43, 72, 58, 76 |
     90, 72, 1, 35, 74, 5, 13, 84, 18, 43, 95, 58, 37, 29, 4 |
     96, 62, 99, 2, 84, 88, 20, 74, 39, 51, 82, 39, 6, 60, 71 |
     4, 92, 75, 20, 10, 29, 23, 61, 51, 35, 56, 65, 45, 12, 3 |
     48, 36, 37, 21, 1, 47, 71, 42, 55, 3, 86, 50, 36, 17, 36 |
     75, 28, 75, 4, 51, 21, 73, 73, 25, 23, 36, 40, 97, 2, 31 |
     71, 9, 28, 94, 65, 33, 55, 63, 30, 44, 2, 33, 80, 93, 71 |
     8, 23, 57, 52, 42, 31, 90, 89, 21, 89, 9, 70, 96, 30, 60 |
     64, 53, 21, 53, 70, 69, 47, 30, 2, 84, 38, 23, 81, 94, 77 |
     61, 26, 44, 52, 99, 5, 73, 96, 74, 89, 69, 31, 88, 2, 26 |];

mc = [| 11, 12, 13, 1, 4, 8, 6, 3, 2, 15, 14, 10, 9, 7, 5 |
      8, 7, 5, 2, 3, 12, 11, 13, 14, 4, 10, 9, 1, 6, 15 |
      6, 13, 4, 8, 15, 3, 11, 2, 12, 7, 1, 14, 10, 5, 9 |
      11, 7, 3, 1, 8, 13, 6, 4, 5, 15, 12, 14, 2, 9, 10 |
      15, 4, 12, 2, 1, 10, 9, 6, 5, 3, 7, 14, 11, 13, 8 |
      7, 14, 13, 12, 9, 15, 3, 8, 10, 11, 1, 4, 5, 2, 6 |
      9, 7, 4, 11, 2, 10, 6, 14, 13, 12, 5, 8, 1, 3, 15 |
      5, 15, 8, 10, 7, 13, 3, 2, 4, 6, 9, 11, 12, 1, 14 |
      3, 10, 5, 4, 14, 2, 7, 9, 11, 1, 15, 12, 8, 6, 13 |
      8, 13, 11, 5, 7, 6, 1, 14, 4, 15, 9, 10, 2, 3, 12 |
      11, 15, 4, 9, 5, 10, 6, 13, 3, 8, 1, 12, 14, 2, 7 |
      1, 5, 10, 4, 7, 11, 2, 12, 6, 15, 14, 13, 8, 9, 3 |
      13, 15, 14, 6, 7, 8, 4, 12, 10, 3, 1, 11, 2, 9, 5 |
      7, 2, 5, 13, 10, 11, 4, 12, 15, 1, 3, 6, 9, 8, 14 |
      6, 12, 7, 4, 2, 8, 15, 9, 1, 3, 13, 14, 5, 10, 11 |];
