n = 30;
m = 20;

d = [| 19, 12, 51, 59, 53, 70, 3, 64, 54, 95, 39, 55, 96, 63, 35, 94, 59, 16, 74, 88 |
     67, 76, 4, 37, 38, 1, 77, 45, 92, 65, 98, 51, 26, 9, 70, 86, 63, 79, 50, 96 |
     66, 45, 98, 71, 14, 1, 99, 34, 59, 3, 53, 80, 40, 36, 60, 93, 7, 65, 72, 83 |
     84, 23, 57, 15, 73, 96, 45, 96, 29, 52, 30, 12, 72, 59, 80, 8, 69, 49, 26, 22 |
     79, 65, 21, 21, 5, 79, 47, 4, 46, 54, 52, 46, 18, 50, 98, 97, 33, 81, 56, 29 |
     62, 32, 98, 62, 28, 67, 8, 20, 81, 43, 87, 67, 30, 93, 59, 89, 20, 74, 87, 5 |
     26, 36, 5, 68, 64, 64, 72, 63, 79, 16, 17, 78, 52, 83, 73, 86, 20, 41, 48, 37 |
     73, 1, 24, 58, 63, 73, 32, 67, 28, 41, 6, 29, 16, 46, 12, 9, 51, 69, 82, 19 |
     27, 98, 36, 71, 16, 77, 83, 95, 21, 54, 58, 78, 89, 71, 4, 88, 79, 55, 34, 2 |
     35, 69, 60, 54, 12, 4, 34, 85, 73, 44, 60, 65, 84, 61, 51, 91, 57, 79, 74, 43 |
     90, 93, 37, 22, 4, 39, 81, 7, 20, 83, 90, 40, 65, 60, 54, 43, 66, 80, 16, 84 |
     75, 13, 39, 36, 56, 1, 28, 68, 37, 75, 40, 57, 18, 16, 15, 81, 76, 12, 28, 69 |
     62, 95, 60, 65, 69, 53, 62, 93, 27, 72, 27, 50, 25, 77, 67, 81, 33, 34, 6, 41 |
     91, 55, 37, 64, 31, 11, 85, 5, 31, 85, 32, 64, 88, 87, 39, 26, 11, 12, 35, 16 |
     96, 85, 57, 58, 7, 9, 42, 40, 39, 30, 73, 53, 82, 43, 77, 64, 52, 4, 13, 6 |
     71, 99, 74, 64, 4, 28, 81, 7, 66, 55, 85, 98, 1, 56, 73, 53, 33, 87, 63, 6 |
     86, 29, 38, 90, 19, 33, 84, 52, 56, 88, 96, 87, 6, 75, 47, 30, 65, 59, 5, 75 |
     85, 29, 60, 50, 61, 1, 97, 78, 31, 89, 9, 6, 98, 40, 68, 15, 33, 89, 66, 75 |
     78, 69, 66, 64, 4, 20, 78, 34, 27, 62, 39, 81, 92, 16, 69, 17, 35, 77, 7, 60 |
     49, 13, 37, 29, 76, 95, 66, 13, 85, 25, 2, 30, 43, 3, 14, 32, 13, 22, 97, 62 |
     83, 63, 66, 87, 42, 66, 42, 84, 91, 57, 61, 54, 58, 97, 56, 82, 20, 59, 93, 78 |
     12, 46, 82, 79, 3, 97, 17, 86, 59, 95, 40, 42, 62, 82, 65, 42, 74, 36, 19, 56 |
     59, 45, 41, 45, 15, 14, 4, 8, 64, 21, 14, 41, 13, 69, 9, 30, 53, 88, 29, 75 |
     86, 59, 56, 72, 13, 38, 14, 5, 53, 11, 86, 21, 72, 28, 43, 27, 94, 43, 44, 61 |
     82, 42, 58, 70, 58, 12, 47, 82, 60, 57, 48, 64, 18, 11, 7, 93, 88, 30, 93, 11 |
     53, 36, 66, 70, 97, 32, 91, 75, 40, 32, 4, 91, 48, 37, 10, 8, 37, 47, 80, 39 |
     9, 73, 11, 82, 85, 38, 84, 18, 72, 36, 87, 46, 51, 63, 78, 21, 13, 5, 83, 96 |
     40, 82, 29, 35, 57, 91, 89, 74, 84, 66, 29, 45, 33, 95, 83, 7, 34, 70, 85, 6 |
     3, 37, 64, 47, 29, 20, 14, 35, 42, 86, 97, 10, 76, 30, 64, 79, 32, 42, 39, 65 |
     23, 39, 43, 3, 16, 57, 26, 90, 50, 48, 9, 1, 60, 70, 68, 95, 22, 6, 7, 82 |];

mc = [| 8, 19, 6, 17, 15, 9, 16, 3, 11, 2, 1, 4, 12, 20, 10, 13, 14, 18, 5, 7 |
      1, 6, 13, 7, 20, 3, 14, 5, 2, 15, 10, 4, 16, 12, 8, 18, 9, 19, 17, 11 |
      1, 4, 14, 12, 17, 9, 10, 2, 7, 20, 8, 18, 11, 6, 5, 19, 16, 3, 13, 15 |
      10, 18, 7, 13, 14, 20, 19, 11, 15, 3, 9, 5, 17, 8, 12, 4, 2, 6, 16, 1 |
      9, 18, 20, 12, 17, 6, 14, 1, 5, 19, 8, 2, 15, 4, 7, 11, 13, 10, 3, 16 |
      10, 11, 7, 13, 8, 4, 17, 15, 5, 20, 3, 16, 19, 18, 1, 14, 2, 9, 12, 6 |
      10, 6, 20, 14, 3, 1, 11, 9, 16, 15, 2, 7, 19, 12, 5, 13, 8, 17, 4, 18 |
      10, 12, 16, 8, 18, 7, 15, 9, 4, 17, 3, 20, 14, 6, 13, 5, 11, 1, 2, 19 |
      13, 6, 10, 18, 14, 5, 1, 15, 19, 7, 4, 12, 11, 8, 9, 3, 17, 20, 16, 2 |
      3, 16, 8, 10, 19, 12, 15, 5, 4, 7, 18, 2, 6, 1, 17, 20, 9, 11, 14, 13 |
      6, 8, 2, 10, 14, 15, 18, 1, 11, 7, 16, 4, 5, 3, 17, 9, 20, 12, 19, 13 |
      5, 19, 2, 4, 3, 8, 13, 6, 10, 11, 1, 17, 18, 12, 15, 14, 9, 16, 20, 7 |
      10, 9, 8, 20, 17, 6, 14, 4, 16, 5, 15, 7, 3, 12, 2, 18, 13, 19, 1, 11 |
      20, 2, 13, 16, 5, 6, 9, 8, 3, 14, 19, 4, 15, 18, 17, 7, 10, 11, 12, 1 |
      3, 9, 5, 13, 18, 16, 4, 2, 14, 10, 12, 1, 19, 11, 6, 8, 7, 15, 20, 17 |
      20, 19, 9, 4, 15, 18, 8, 1, 7, 3, 6, 13, 17, 10, 16, 14, 12, 5, 11, 2 |
      16, 10, 17, 15, 11, 6, 3, 20, 5, 12, 14, 19, 4, 7, 13, 2, 8, 9, 1, 18 |
      16, 1, 7, 19, 12, 5, 8, 2, 15, 4, 17, 11, 13, 9, 3, 10, 6, 14, 20, 18 |
      15, 14, 5, 10, 1, 13, 7, 16, 17, 8, 6, 20, 9, 18, 3, 11, 2, 4, 19, 12 |
      3, 20, 15, 9, 18, 16, 12, 17, 5, 2, 1, 8, 19, 6, 11, 13, 7, 4, 14, 10 |
      20, 11, 4, 3, 10, 19, 14, 12, 16, 1, 18, 17, 13, 6, 8, 15, 2, 9, 7, 5 |
      20, 8, 16, 7, 3, 10, 1, 6, 15, 13, 12, 14, 9, 4, 2, 19, 17, 5, 18, 11 |
      13, 2, 12, 8, 14, 20, 5, 1, 4, 18, 16, 17, 7, 19, 3, 6, 9, 10, 15, 11 |
      3, 12, 14, 7, 18, 17, 9, 10, 2, 15, 4, 20, 13, 6, 16, 8, 1, 19, 11, 5 |
      3, 11, 9, 6, 19, 12, 17, 1, 16, 2, 15, 5, 14, 10, 7, 13, 20, 4, 18, 8 |
      5, 1, 15, 8, 6, 11, 19, 16, 10, 13, 17, 20, 9, 2, 4, 12, 18, 7, 3, 14 |
      5, 12, 15, 6, 1, 16, 11, 7, 13, 18, 10, 4, 3, 17, 20, 2, 9, 8, 14, 19 |
      17, 6, 7, 14, 18, 20, 19, 15, 13, 9, 5, 1, 12, 3, 4, 10, 2, 11, 8, 16 |
      8, 12, 10, 15, 5, 20, 13, 1, 7, 2, 4, 18, 17, 19, 6, 3, 9, 14, 11, 16 |
      8, 3, 19, 15, 20, 12, 5, 7, 18, 1, 10, 16, 6, 9, 4, 17, 14, 11, 2, 13 |];
