n = 20;
m = 20;

d = [| 97, 56, 14, 65, 38, 44, 46, 84, 34, 83, 4, 73, 52, 51, 63, 63, 49, 67, 91, 86 |
     87, 25, 77, 15, 7, 41, 13, 80, 29, 49, 34, 92, 24, 37, 97, 39, 1, 91, 26, 13 |
     90, 4, 11, 70, 8, 41, 62, 14, 81, 7, 23, 51, 31, 2, 34, 77, 66, 8, 31, 16 |
     17, 71, 74, 83, 10, 43, 77, 42, 97, 59, 96, 59, 68, 9, 36, 51, 92, 64, 61, 84 |
     65, 96, 44, 72, 14, 20, 69, 26, 9, 43, 59, 26, 76, 41, 25, 45, 15, 57, 27, 32 |
     53, 7, 76, 40, 9, 8, 62, 63, 86, 95, 86, 29, 28, 22, 12, 31, 33, 53, 4, 91 |
     65, 73, 21, 65, 25, 30, 45, 18, 97, 27, 85, 76, 28, 21, 48, 52, 92, 25, 54, 98 |
     15, 36, 69, 37, 58, 74, 68, 76, 94, 36, 63, 77, 96, 70, 14, 92, 31, 94, 36, 26 |
     92, 43, 95, 41, 76, 42, 21, 15, 22, 29, 47, 54, 55, 35, 23, 90, 25, 59, 2, 30 |
     72, 87, 57, 58, 12, 81, 34, 8, 49, 56, 26, 15, 68, 34, 30, 84, 25, 34, 96, 98 |
     64, 93, 3, 84, 92, 34, 69, 62, 16, 89, 10, 15, 5, 56, 29, 49, 39, 78, 6, 58 |
     81, 72, 31, 50, 36, 92, 82, 78, 57, 15, 33, 65, 94, 23, 22, 38, 29, 65, 30, 15 |
     62, 83, 19, 4, 2, 18, 76, 35, 15, 6, 86, 32, 31, 54, 73, 27, 45, 47, 9, 25 |
     85, 82, 90, 70, 70, 59, 2, 82, 30, 32, 34, 68, 32, 70, 88, 90, 80, 93, 67, 87 |
     63, 38, 43, 85, 7, 99, 60, 18, 49, 25, 73, 44, 47, 66, 21, 45, 15, 54, 53, 69 |
     50, 65, 63, 67, 93, 28, 29, 58, 60, 66, 34, 57, 14, 67, 51, 51, 41, 20, 45, 10 |
     1, 37, 31, 52, 63, 30, 74, 36, 99, 54, 37, 83, 25, 31, 65, 51, 11, 51, 57, 2 |
     64, 88, 22, 45, 74, 87, 4, 21, 9, 78, 85, 24, 19, 79, 51, 72, 91, 23, 85, 26 |
     39, 28, 34, 45, 24, 88, 37, 3, 29, 37, 52, 69, 93, 2, 87, 42, 64, 44, 76, 16 |
     93, 59, 74, 89, 15, 30, 3, 74, 76, 90, 59, 60, 4, 54, 13, 92, 82, 21, 47, 35 |];

mc = [| 17, 8, 10, 7, 9, 14, 11, 13, 5, 6, 18, 16, 2, 3, 4, 20, 1, 12, 19, 15 |
      16, 4, 17, 1, 19, 10, 20, 8, 15, 2, 12, 13, 6, 5, 18, 9, 14, 11, 3, 7 |
      18, 1, 3, 16, 5, 15, 6, 19, 13, 8, 20, 9, 11, 4, 14, 2, 12, 17, 10, 7 |
      16, 18, 20, 11, 13, 10, 6, 2, 8, 3, 12, 7, 4, 19, 15, 17, 5, 9, 14, 1 |
      9, 1, 5, 20, 16, 3, 19, 17, 11, 10, 14, 15, 18, 2, 13, 8, 4, 6, 12, 7 |
      6, 3, 4, 14, 18, 12, 17, 7, 11, 1, 2, 9, 20, 13, 5, 16, 15, 19, 8, 10 |
      10, 11, 7, 17, 8, 16, 13, 14, 19, 4, 18, 20, 15, 5, 3, 9, 6, 12, 2, 1 |
      7, 10, 16, 11, 20, 18, 13, 8, 12, 9, 1, 3, 17, 19, 2, 14, 6, 4, 15, 5 |
      8, 2, 6, 7, 9, 4, 20, 13, 16, 11, 19, 12, 14, 15, 5, 10, 1, 3, 17, 18 |
      15, 8, 12, 16, 20, 13, 3, 11, 6, 14, 7, 17, 10, 18, 2, 19, 1, 5, 9, 4 |
      13, 8, 11, 15, 16, 12, 9, 19, 5, 17, 1, 6, 20, 3, 7, 18, 4, 2, 14, 10 |
      8, 7, 17, 9, 14, 18, 10, 6, 15, 3, 20, 13, 1, 19, 12, 5, 11, 16, 4, 2 |
      12, 18, 16, 8, 3, 13, 4, 2, 19, 9, 11, 17, 5, 6, 20, 7, 1, 15, 10, 14 |
      3, 17, 9, 5, 16, 8, 2, 15, 12, 7, 19, 6, 14, 18, 20, 1, 11, 10, 4, 13 |
      17, 10, 14, 19, 5, 13, 9, 16, 12, 1, 18, 11, 2, 6, 15, 8, 20, 4, 7, 3 |
      3, 16, 8, 2, 15, 13, 1, 4, 9, 12, 18, 14, 11, 10, 19, 6, 20, 17, 5, 7 |
      16, 12, 14, 9, 17, 8, 7, 15, 19, 11, 10, 13, 6, 2, 20, 5, 18, 1, 3, 4 |
      19, 5, 7, 11, 13, 14, 4, 15, 20, 3, 1, 17, 2, 16, 12, 18, 10, 9, 8, 6 |
      9, 17, 2, 13, 11, 4, 7, 14, 12, 18, 1, 6, 15, 20, 3, 10, 16, 5, 19, 8 |
      2, 11, 12, 1, 8, 5, 19, 18, 16, 15, 9, 14, 13, 17, 7, 10, 20, 3, 4, 6 |];
