n = 15;
m = 15;

d = [| 32, 60, 1, 20, 46, 35, 78, 62, 21, 88, 51, 32, 52, 2, 4 |
     70, 17, 91, 52, 16, 55, 86, 86, 54, 28, 33, 85, 43, 69, 80 |
     77, 23, 17, 99, 48, 47, 80, 76, 14, 32, 43, 90, 89, 32, 63 |
     83, 38, 58, 58, 84, 95, 68, 96, 51, 88, 2, 99, 9, 81, 36 |
     57, 98, 59, 87, 93, 75, 17, 35, 96, 94, 31, 40, 98, 50, 36 |
     34, 80, 57, 38, 50, 19, 89, 43, 15, 19, 82, 14, 29, 74, 36 |
     89, 24, 28, 84, 54, 6, 13, 10, 48, 67, 1, 11, 38, 27, 33 |
     50, 70, 90, 13, 24, 1, 34, 15, 74, 96, 32, 76, 79, 6, 80 |
     76, 94, 79, 34, 16, 13, 55, 10, 27, 51, 61, 99, 9, 12, 31 |
     71, 97, 32, 68, 95, 5, 23, 44, 73, 20, 75, 29, 50, 94, 23 |
     27, 86, 61, 92, 3, 88, 73, 81, 93, 56, 68, 46, 81, 21, 18 |
     58, 25, 65, 30, 68, 93, 24, 69, 15, 12, 28, 14, 44, 49, 23 |
     40, 85, 69, 76, 28, 30, 74, 49, 96, 76, 51, 87, 59, 36, 79 |
     88, 82, 77, 98, 38, 95, 58, 4, 51, 47, 86, 4, 75, 58, 69 |
     76, 14, 78, 92, 50, 13, 87, 3, 51, 69, 17, 68, 31, 21, 19 |];

mc = [| 9, 4, 14, 2, 8, 6, 7, 1, 11, 15, 10, 5, 12, 3, 13 |
      6, 11, 1, 3, 10, 9, 4, 15, 2, 12, 5, 7, 8, 14, 13 |
      5, 1, 9, 14, 2, 11, 12, 13, 8, 3, 6, 7, 4, 10, 15 |
      14, 8, 10, 5, 13, 1, 9, 4, 3, 12, 7, 6, 15, 2, 11 |
      6, 9, 14, 11, 5, 4, 15, 3, 2, 10, 12, 1, 13, 8, 7 |
      5, 8, 10, 12, 15, 14, 11, 2, 3, 1, 7, 4, 9, 6, 13 |
      13, 1, 12, 7, 3, 15, 11, 4, 8, 9, 14, 6, 2, 5, 10 |
      15, 8, 13, 1, 6, 14, 11, 4, 7, 5, 2, 12, 9, 3, 10 |
      3, 10, 13, 11, 6, 4, 1, 12, 15, 14, 8, 9, 5, 2, 7 |
      7, 4, 8, 15, 14, 10, 12, 6, 11, 13, 9, 3, 5, 2, 1 |
      7, 10, 8, 15, 11, 5, 9, 14, 6, 3, 2, 4, 1, 12, 13 |
      12, 6, 2, 1, 4, 5, 13, 7, 9, 3, 15, 10, 14, 8, 11 |
      14, 15, 11, 8, 4, 3, 6, 7, 13, 2, 12, 10, 9, 1, 5 |
      7, 9, 10, 3, 13, 15, 8, 4, 14, 1, 11, 2, 12, 5, 6 |
      9, 14, 1, 2, 15, 8, 7, 5, 10, 11, 3, 6, 4, 12, 13 |];
