n = 20;
m = 20;

d = [| 84, 85, 47, 60, 35, 31, 38, 7, 49, 86, 69, 83, 93, 34, 95, 77, 51, 3, 47, 47 |
     55, 56, 40, 88, 12, 28, 91, 15, 48, 81, 83, 84, 20, 95, 71, 63, 93, 65, 85, 49 |
     22, 10, 65, 57, 88, 36, 4, 87, 14, 62, 65, 71, 6, 2, 7, 82, 16, 21, 48, 6 |
     67, 42, 63, 42, 53, 73, 8, 30, 61, 20, 77, 26, 3, 51, 38, 69, 27, 14, 29, 20 |
     84, 92, 45, 76, 55, 2, 43, 44, 66, 97, 82, 61, 29, 99, 11, 99, 9, 77, 29, 13 |
     8, 38, 13, 78, 5, 62, 52, 21, 76, 90, 80, 68, 96, 86, 45, 65, 2, 11, 1, 85 |
     99, 36, 82, 70, 2, 38, 45, 89, 56, 38, 32, 22, 8, 33, 95, 34, 95, 12, 27, 63 |
     27, 83, 33, 93, 66, 7, 53, 73, 69, 27, 47, 21, 37, 81, 40, 39, 39, 86, 92, 20 |
     17, 28, 52, 85, 96, 98, 38, 86, 98, 67, 93, 20, 86, 48, 54, 62, 95, 27, 5, 95 |
     31, 19, 51, 95, 87, 21, 46, 19, 24, 91, 20, 17, 74, 48, 69, 69, 1, 61, 83, 5 |
     21, 83, 29, 87, 29, 48, 11, 75, 11, 40, 26, 67, 77, 73, 6, 8, 2, 71, 51, 57 |
     48, 58, 50, 77, 76, 16, 15, 94, 77, 76, 11, 26, 50, 85, 79, 46, 25, 84, 76, 9 |
     42, 84, 35, 44, 79, 13, 14, 66, 16, 86, 13, 47, 85, 8, 64, 82, 20, 11, 98, 87 |
     5, 97, 53, 46, 41, 11, 36, 51, 83, 19, 47, 71, 8, 98, 74, 75, 48, 76, 76, 97 |
     9, 93, 25, 5, 17, 80, 65, 34, 97, 19, 68, 43, 69, 45, 53, 38, 97, 4, 99, 54 |
     20, 82, 33, 24, 94, 36, 80, 92, 10, 77, 6, 8, 1, 82, 29, 93, 44, 99, 87, 50 |
     99, 78, 35, 26, 45, 14, 28, 17, 52, 50, 74, 41, 12, 60, 61, 87, 27, 68, 19, 8 |
     17, 62, 83, 36, 47, 69, 27, 95, 81, 40, 44, 45, 83, 16, 98, 80, 20, 1, 26, 38 |
     58, 8, 35, 68, 50, 91, 26, 37, 22, 44, 95, 70, 89, 97, 34, 14, 73, 74, 89, 29 |
     83, 30, 94, 87, 36, 42, 85, 77, 43, 12, 77, 14, 26, 15, 39, 21, 66, 34, 60, 27 |];

mc = [| 18, 4, 2, 19, 14, 3, 17, 7, 8, 15, 1, 9, 11, 12, 13, 5, 16, 6, 20, 10 |
      15, 10, 3, 18, 11, 16, 20, 4, 6, 12, 17, 2, 14, 5, 1, 13, 7, 19, 8, 9 |
      2, 13, 12, 4, 17, 7, 1, 9, 20, 5, 14, 3, 15, 18, 6, 11, 10, 16, 8, 19 |
      16, 13, 6, 14, 2, 15, 19, 10, 20, 17, 9, 8, 7, 5, 3, 11, 12, 4, 18, 1 |
      11, 9, 18, 16, 7, 10, 8, 5, 14, 17, 1, 15, 4, 2, 19, 6, 12, 13, 3, 20 |
      4, 3, 6, 8, 20, 10, 16, 9, 12, 17, 7, 18, 2, 15, 19, 11, 1, 13, 14, 5 |
      2, 5, 10, 6, 20, 18, 15, 16, 9, 11, 4, 12, 7, 3, 19, 8, 1, 13, 17, 14 |
      10, 6, 18, 17, 13, 12, 19, 7, 8, 9, 15, 14, 11, 1, 20, 2, 3, 16, 4, 5 |
      9, 8, 3, 20, 1, 4, 6, 7, 17, 2, 18, 11, 5, 12, 15, 16, 13, 19, 14, 10 |
      3, 11, 10, 20, 15, 1, 2, 8, 5, 7, 14, 13, 17, 12, 19, 6, 16, 18, 4, 9 |
      12, 1, 5, 2, 15, 8, 11, 19, 17, 7, 6, 16, 4, 18, 14, 13, 10, 20, 3, 9 |
      6, 8, 4, 19, 11, 13, 3, 20, 12, 1, 16, 9, 5, 15, 18, 7, 2, 17, 10, 14 |
      8, 17, 4, 12, 2, 11, 18, 5, 20, 1, 9, 16, 13, 14, 15, 7, 6, 19, 10, 3 |
      14, 3, 13, 2, 17, 5, 10, 12, 19, 8, 18, 15, 20, 11, 7, 16, 4, 6, 1, 9 |
      12, 9, 20, 8, 18, 15, 11, 1, 4, 2, 14, 10, 19, 3, 7, 16, 6, 5, 17, 13 |
      13, 6, 17, 3, 8, 19, 7, 2, 18, 11, 15, 12, 14, 4, 10, 5, 9, 16, 20, 1 |
      17, 4, 1, 19, 5, 8, 6, 15, 7, 13, 2, 11, 9, 16, 12, 18, 14, 3, 10, 20 |
      2, 17, 4, 18, 3, 15, 12, 6, 11, 13, 19, 16, 10, 7, 8, 5, 20, 1, 9, 14 |
      12, 9, 13, 20, 10, 14, 17, 11, 6, 5, 16, 4, 19, 15, 1, 18, 8, 2, 7, 3 |
      1, 19, 13, 16, 15, 2, 7, 14, 20, 11, 3, 17, 18, 12, 10, 6, 9, 5, 4, 8 |];
