n = 20;
m = 15;

d = [| 75, 98, 7, 84, 73, 26, 75, 26, 67, 73, 29, 62, 9, 22, 52 |
     56, 44, 18, 21, 78, 56, 30, 21, 12, 99, 86, 99, 91, 88, 36 |
     23, 8, 85, 8, 94, 36, 11, 94, 20, 15, 79, 78, 77, 39, 16 |
     60, 52, 87, 79, 68, 81, 7, 58, 48, 44, 54, 77, 24, 52, 51 |
     12, 33, 27, 3, 30, 97, 89, 13, 36, 75, 91, 82, 68, 13, 19 |
     62, 8, 13, 7, 91, 5, 12, 31, 17, 60, 14, 37, 55, 57, 71 |
     11, 98, 93, 44, 80, 44, 4, 34, 70, 25, 8, 73, 12, 8, 16 |
     47, 6, 68, 74, 83, 88, 73, 44, 17, 48, 47, 24, 93, 22, 77 |
     63, 56, 74, 51, 61, 17, 93, 44, 79, 49, 5, 34, 53, 43, 40 |
     99, 46, 46, 94, 7, 92, 38, 83, 26, 33, 39, 78, 12, 9, 5 |
     25, 37, 50, 87, 44, 3, 55, 95, 36, 10, 51, 24, 40, 89, 23 |
     3, 15, 48, 29, 29, 62, 96, 56, 20, 53, 42, 90, 61, 13, 24 |
     65, 73, 5, 81, 35, 9, 87, 96, 48, 64, 96, 28, 63, 22, 4 |
     3, 53, 49, 84, 3, 35, 13, 20, 13, 94, 50, 93, 42, 34, 11 |
     56, 51, 10, 96, 16, 22, 56, 47, 83, 83, 45, 90, 30, 11, 91 |
     3, 30, 69, 40, 94, 44, 36, 56, 52, 88, 93, 32, 47, 84, 63 |
     82, 1, 58, 40, 68, 43, 60, 54, 12, 91, 34, 6, 67, 90, 94 |
     87, 60, 86, 61, 76, 65, 47, 97, 56, 58, 66, 63, 21, 89, 53 |
     4, 50, 53, 38, 27, 67, 58, 80, 46, 20, 91, 64, 50, 85, 89 |
     49, 91, 81, 50, 16, 47, 5, 74, 92, 93, 21, 36, 53, 35, 21 |];

mc = [| 12, 4, 14, 1, 5, 13, 8, 6, 7, 11, 10, 15, 2, 9, 3 |
      14, 9, 4, 5, 6, 1, 3, 12, 2, 10, 8, 7, 11, 15, 13 |
      14, 13, 11, 15, 2, 9, 3, 12, 6, 8, 4, 5, 7, 10, 1 |
      3, 13, 7, 5, 9, 8, 4, 6, 2, 14, 12, 15, 1, 10, 11 |
      15, 4, 8, 14, 7, 3, 11, 10, 5, 1, 6, 9, 12, 13, 2 |
      10, 5, 2, 6, 4, 11, 9, 14, 15, 7, 1, 8, 13, 3, 12 |
      9, 12, 14, 7, 15, 8, 10, 11, 5, 6, 1, 13, 4, 2, 3 |
      5, 7, 3, 6, 4, 11, 12, 15, 1, 10, 2, 13, 14, 9, 8 |
      3, 5, 9, 14, 13, 11, 12, 15, 8, 10, 1, 4, 6, 7, 2 |
      6, 13, 2, 15, 14, 11, 5, 9, 8, 1, 7, 3, 12, 10, 4 |
      9, 8, 5, 10, 11, 1, 2, 15, 14, 4, 7, 13, 6, 12, 3 |
      15, 14, 13, 8, 5, 11, 2, 10, 7, 4, 1, 6, 3, 12, 9 |
      4, 10, 13, 3, 8, 14, 2, 15, 11, 5, 12, 1, 7, 6, 9 |
      10, 11, 3, 9, 1, 2, 8, 12, 4, 13, 7, 14, 15, 5, 6 |
      11, 14, 15, 2, 12, 6, 8, 10, 7, 13, 4, 1, 9, 3, 5 |
      8, 7, 13, 14, 12, 9, 10, 6, 2, 3, 1, 11, 5, 15, 4 |
      4, 13, 2, 12, 6, 15, 1, 3, 14, 10, 7, 8, 9, 5, 11 |
      6, 1, 2, 10, 13, 15, 7, 4, 14, 9, 5, 12, 11, 3, 8 |
      11, 1, 13, 10, 8, 4, 2, 3, 15, 7, 9, 6, 14, 12, 5 |
      4, 9, 5, 2, 1, 6, 11, 3, 7, 12, 8, 13, 14, 15, 10 |];
