n = 20;
m = 15;

d = [| 69, 23, 13, 44, 8, 16, 1, 18, 26, 48, 5, 78, 32, 97, 26 |
     46, 34, 66, 13, 95, 38, 48, 28, 27, 40, 10, 83, 90, 39, 41 |
     22, 69, 61, 7, 52, 64, 77, 71, 1, 70, 74, 79, 96, 41, 38 |
     36, 87, 96, 54, 23, 42, 16, 89, 10, 69, 21, 53, 72, 64, 79 |
     59, 78, 18, 49, 53, 86, 27, 17, 99, 43, 58, 9, 33, 99, 51 |
     13, 1, 35, 32, 56, 62, 94, 20, 10, 92, 69, 29, 93, 41, 22 |
     60, 98, 29, 29, 8, 21, 52, 34, 39, 72, 43, 24, 94, 57, 73 |
     75, 21, 70, 32, 40, 86, 80, 42, 54, 63, 50, 20, 11, 42, 40 |
     84, 32, 65, 63, 70, 97, 83, 97, 2, 87, 20, 4, 81, 89, 74 |
     55, 88, 18, 34, 33, 42, 86, 90, 79, 18, 50, 83, 32, 57, 58 |
     40, 76, 44, 61, 7, 9, 50, 66, 24, 9, 44, 90, 58, 47, 92 |
     19, 85, 59, 95, 31, 61, 19, 84, 72, 25, 94, 45, 81, 7, 73 |
     51, 82, 46, 82, 7, 26, 66, 5, 95, 10, 97, 51, 44, 23, 96 |
     90, 89, 11, 35, 82, 43, 41, 84, 62, 58, 11, 79, 23, 57, 90 |
     20, 66, 55, 99, 93, 91, 13, 88, 85, 2, 19, 74, 76, 16, 16 |
     94, 35, 92, 34, 66, 2, 3, 82, 35, 75, 12, 11, 1, 82, 72 |
     5, 39, 60, 36, 78, 43, 70, 55, 39, 35, 64, 35, 88, 85, 44 |
     57, 36, 31, 30, 40, 27, 27, 22, 82, 82, 17, 97, 20, 97, 78 |
     50, 93, 62, 47, 80, 40, 57, 90, 89, 25, 36, 13, 21, 87, 96 |
     46, 70, 31, 46, 36, 62, 65, 64, 82, 12, 46, 90, 80, 73, 85 |];

mc = [| 7, 6, 13, 10, 4, 1, 8, 9, 12, 3, 5, 11, 15, 14, 2 |
      10, 3, 15, 1, 14, 8, 7, 2, 6, 13, 4, 5, 11, 9, 12 |
      8, 7, 10, 11, 3, 1, 13, 15, 12, 5, 9, 2, 4, 6, 14 |
      8, 14, 3, 5, 10, 11, 2, 7, 1, 12, 15, 6, 13, 9, 4 |
      7, 5, 2, 15, 12, 8, 10, 13, 14, 11, 6, 3, 9, 1, 4 |
      15, 10, 6, 13, 12, 2, 7, 5, 4, 11, 9, 3, 8, 14, 1 |
      14, 4, 1, 9, 6, 7, 8, 3, 15, 13, 12, 5, 11, 10, 2 |
      3, 10, 9, 5, 12, 11, 7, 6, 2, 4, 13, 1, 14, 8, 15 |
      11, 12, 2, 8, 6, 4, 5, 9, 15, 13, 7, 3, 14, 1, 10 |
      9, 11, 3, 1, 6, 8, 7, 10, 15, 13, 14, 12, 2, 5, 4 |
      3, 14, 6, 13, 9, 1, 8, 15, 5, 7, 11, 4, 12, 10, 2 |
      10, 11, 8, 14, 12, 1, 6, 3, 13, 15, 7, 5, 9, 2, 4 |
      5, 12, 6, 7, 9, 8, 1, 15, 13, 14, 10, 2, 11, 4, 3 |
      6, 9, 5, 15, 7, 3, 4, 8, 10, 14, 2, 13, 11, 12, 1 |
      12, 7, 9, 3, 13, 10, 1, 14, 4, 2, 5, 11, 15, 8, 6 |
      2, 14, 5, 11, 7, 13, 1, 10, 3, 15, 9, 8, 12, 6, 4 |
      14, 6, 2, 15, 13, 4, 7, 10, 3, 11, 9, 8, 12, 1, 5 |
      11, 12, 7, 5, 9, 13, 2, 4, 1, 15, 10, 8, 6, 14, 3 |
      14, 11, 5, 7, 6, 1, 15, 13, 2, 3, 12, 4, 10, 9, 8 |
      8, 2, 15, 7, 1, 5, 13, 4, 12, 9, 14, 11, 3, 6, 10 |];
