n = 50;
m = 20;

d = [| 97, 97, 81, 69, 30, 1, 27, 77, 95, 8, 17, 35, 1, 24, 89, 78, 20, 42, 88, 43 |
     12, 56, 53, 70, 24, 86, 13, 23, 1, 42, 51, 76, 29, 1, 30, 70, 14, 68, 23, 42 |
     40, 18, 68, 18, 39, 35, 30, 74, 79, 63, 97, 85, 71, 57, 96, 25, 30, 27, 11, 38 |
     68, 36, 15, 15, 59, 89, 13, 3, 13, 45, 44, 8, 61, 43, 46, 98, 64, 93, 24, 21 |
     36, 75, 99, 87, 70, 47, 92, 9, 51, 90, 21, 78, 12, 16, 96, 72, 25, 32, 68, 46 |
     21, 82, 71, 79, 86, 99, 65, 97, 84, 11, 54, 6, 79, 72, 46, 22, 99, 45, 25, 9 |
     51, 53, 20, 13, 62, 41, 94, 51, 76, 67, 92, 46, 45, 8, 85, 42, 9, 8, 33, 16 |
     14, 94, 53, 92, 81, 78, 97, 85, 94, 4, 3, 5, 63, 72, 52, 47, 98, 58, 65, 3 |
     87, 10, 42, 53, 62, 76, 61, 40, 4, 67, 66, 56, 31, 45, 68, 92, 8, 25, 89, 16 |
     33, 77, 37, 32, 10, 48, 9, 48, 81, 65, 98, 24, 89, 54, 95, 75, 56, 16, 85, 19 |
     13, 29, 43, 56, 73, 40, 75, 31, 30, 82, 87, 67, 85, 40, 84, 36, 54, 78, 29, 50 |
     4, 69, 69, 54, 67, 90, 44, 33, 23, 27, 34, 37, 51, 94, 94, 88, 59, 14, 75, 45 |
     10, 39, 91, 64, 79, 67, 35, 11, 39, 81, 4, 67, 83, 42, 74, 16, 40, 90, 84, 62 |
     65, 38, 82, 2, 23, 1, 10, 89, 68, 37, 7, 56, 31, 52, 45, 62, 11, 36, 14, 72 |
     41, 71, 32, 79, 26, 13, 17, 57, 31, 62, 7, 71, 23, 65, 86, 63, 61, 14, 69, 57 |
     98, 45, 65, 64, 23, 61, 18, 90, 39, 59, 16, 73, 99, 65, 86, 81, 29, 16, 74, 14 |
     75, 17, 80, 50, 68, 25, 48, 90, 82, 2, 27, 65, 4, 67, 29, 50, 11, 63, 18, 38 |
     5, 82, 39, 5, 48, 92, 92, 43, 73, 73, 65, 42, 32, 66, 31, 50, 83, 93, 34, 76 |
     78, 87, 61, 36, 31, 92, 3, 17, 47, 97, 65, 34, 19, 11, 60, 2, 22, 20, 47, 8 |
     28, 82, 96, 20, 11, 27, 91, 96, 75, 36, 18, 19, 35, 20, 6, 45, 74, 1, 87, 62 |
     67, 24, 36, 79, 11, 29, 18, 4, 70, 38, 97, 32, 67, 17, 1, 89, 86, 11, 95, 41 |
     24, 2, 46, 24, 44, 14, 31, 71, 67, 52, 87, 22, 37, 66, 25, 38, 52, 46, 50, 97 |
     43, 54, 79, 60, 18, 48, 55, 50, 92, 62, 76, 15, 3, 18, 64, 21, 53, 82, 86, 76 |
     27, 26, 4, 71, 1, 56, 69, 62, 23, 28, 74, 98, 64, 71, 33, 52, 87, 50, 56, 47 |
     24, 63, 57, 67, 5, 7, 79, 20, 89, 41, 25, 67, 42, 9, 42, 78, 72, 53, 92, 57 |
     90, 56, 79, 34, 98, 84, 92, 3, 1, 85, 79, 89, 68, 42, 59, 46, 55, 10, 94, 32 |
     28, 83, 32, 73, 68, 62, 3, 45, 86, 51, 81, 99, 91, 37, 20, 29, 44, 29, 71, 35 |
     49, 39, 15, 11, 94, 10, 72, 75, 97, 36, 9, 41, 51, 96, 88, 24, 58, 39, 60, 39 |
     53, 27, 22, 26, 95, 75, 56, 75, 83, 28, 57, 91, 28, 45, 95, 9, 16, 14, 42, 14 |
     45, 9, 93, 33, 46, 27, 82, 75, 4, 11, 76, 62, 50, 93, 9, 76, 46, 56, 65, 38 |
     18, 15, 26, 85, 4, 87, 33, 99, 32, 33, 75, 20, 65, 74, 63, 98, 6, 62, 9, 6 |
     5, 72, 54, 93, 61, 60, 44, 68, 50, 28, 55, 32, 17, 81, 26, 19, 87, 63, 70, 99 |
     92, 63, 3, 87, 42, 40, 14, 49, 50, 4, 88, 53, 48, 53, 91, 79, 6, 32, 93, 91 |
     92, 84, 39, 68, 65, 38, 59, 45, 15, 53, 56, 35, 48, 87, 72, 68, 10, 12, 51, 39 |
     57, 38, 1, 94, 58, 12, 39, 68, 76, 32, 46, 41, 20, 60, 21, 46, 75, 92, 26, 58 |
     51, 80, 26, 62, 25, 91, 49, 38, 53, 46, 4, 61, 44, 29, 39, 87, 22, 19, 40, 60 |
     85, 97, 49, 50, 55, 54, 57, 47, 45, 98, 97, 15, 23, 52, 35, 54, 5, 63, 53, 91 |
     67, 81, 29, 89, 54, 78, 34, 19, 80, 64, 22, 89, 65, 18, 21, 89, 37, 47, 50, 88 |
     66, 71, 50, 85, 26, 77, 78, 86, 11, 49, 34, 84, 3, 69, 28, 26, 30, 83, 8, 84 |
     89, 17, 30, 62, 59, 16, 41, 87, 96, 96, 28, 85, 50, 23, 75, 3, 87, 73, 39, 82 |
     85, 88, 12, 89, 62, 79, 69, 34, 5, 57, 5, 90, 41, 89, 54, 67, 70, 38, 80, 94 |
     29, 82, 34, 16, 33, 74, 39, 51, 71, 11, 13, 83, 4, 5, 49, 22, 99, 32, 68, 21 |
     45, 90, 58, 23, 35, 98, 98, 94, 22, 77, 26, 16, 1, 21, 91, 2, 98, 98, 4, 6 |
     21, 18, 14, 36, 31, 28, 53, 6, 65, 69, 33, 33, 51, 24, 12, 55, 34, 63, 7, 49 |
     7, 1, 29, 37, 16, 32, 77, 87, 12, 12, 69, 78, 54, 60, 94, 1, 31, 37, 15, 44 |
     61, 48, 64, 5, 54, 63, 51, 38, 48, 50, 24, 93, 21, 23, 65, 47, 42, 14, 38, 74 |
     39, 59, 33, 46, 87, 70, 89, 74, 29, 53, 87, 40, 23, 20, 56, 29, 15, 5, 74, 81 |
     12, 53, 55, 32, 65, 76, 22, 99, 38, 85, 72, 48, 35, 86, 23, 6, 41, 60, 23, 67 |
     90, 39, 67, 98, 74, 42, 79, 86, 32, 34, 63, 35, 39, 10, 18, 70, 13, 82, 94, 5 |
     12, 52, 43, 11, 3, 17, 92, 78, 72, 19, 66, 25, 22, 38, 7, 32, 81, 44, 80, 19 |];

mc = [| 17, 18, 10, 3, 11, 5, 19, 16, 15, 8, 13, 2, 12, 14, 9, 4, 1, 6, 7, 20 |
      16, 7, 13, 8, 14, 4, 17, 9, 11, 10, 6, 3, 15, 18, 20, 19, 2, 1, 5, 12 |
      19, 1, 17, 10, 2, 16, 20, 9, 15, 3, 6, 13, 18, 11, 4, 5, 12, 8, 14, 7 |
      16, 13, 9, 15, 1, 6, 7, 5, 14, 3, 12, 17, 10, 8, 4, 20, 11, 19, 18, 2 |
      5, 2, 3, 17, 8, 6, 12, 4, 19, 9, 16, 18, 7, 1, 14, 20, 10, 15, 11, 13 |
      1, 16, 18, 14, 2, 7, 11, 10, 12, 5, 8, 9, 13, 19, 20, 4, 17, 3, 6, 15 |
      14, 10, 13, 8, 15, 2, 20, 4, 11, 18, 16, 19, 12, 7, 5, 3, 6, 1, 9, 17 |
      18, 10, 9, 4, 12, 15, 13, 3, 7, 11, 5, 19, 20, 6, 14, 16, 17, 2, 1, 8 |
      2, 16, 8, 5, 7, 17, 10, 19, 4, 14, 6, 3, 20, 11, 9, 13, 12, 15, 1, 18 |
      3, 5, 14, 8, 10, 4, 17, 2, 6, 13, 9, 7, 1, 11, 20, 18, 15, 19, 12, 16 |
      10, 17, 14, 6, 4, 11, 12, 7, 15, 5, 16, 20, 2, 18, 19, 13, 3, 8, 1, 9 |
      7, 10, 11, 5, 4, 1, 2, 12, 3, 17, 8, 20, 15, 16, 19, 13, 6, 9, 14, 18 |
      10, 14, 13, 1, 12, 17, 15, 9, 11, 2, 6, 16, 19, 5, 18, 3, 7, 4, 8, 20 |
      16, 8, 7, 3, 4, 11, 14, 10, 2, 18, 1, 17, 19, 15, 12, 9, 5, 20, 6, 13 |
      10, 7, 15, 13, 18, 6, 20, 2, 1, 4, 9, 11, 5, 8, 12, 16, 3, 19, 14, 17 |
      12, 3, 2, 18, 1, 11, 6, 20, 9, 8, 17, 7, 5, 4, 10, 14, 13, 16, 15, 19 |
      4, 14, 8, 5, 20, 15, 2, 10, 1, 17, 19, 9, 13, 11, 6, 3, 7, 18, 12, 16 |
      17, 5, 18, 2, 8, 3, 20, 15, 13, 4, 12, 19, 14, 9, 11, 7, 1, 16, 10, 6 |
      10, 15, 5, 2, 4, 3, 8, 12, 1, 13, 6, 7, 9, 11, 14, 16, 20, 18, 19, 17 |
      19, 9, 11, 20, 14, 5, 18, 6, 15, 2, 1, 4, 7, 16, 8, 12, 3, 13, 10, 17 |
      15, 2, 5, 3, 12, 8, 10, 7, 13, 4, 6, 1, 11, 9, 17, 19, 16, 14, 20, 18 |
      18, 7, 9, 20, 1, 16, 2, 13, 3, 11, 17, 14, 4, 12, 5, 15, 10, 6, 19, 8 |
      20, 8, 18, 6, 3, 4, 2, 10, 14, 15, 7, 16, 1, 11, 12, 5, 9, 19, 13, 17 |
      14, 10, 17, 20, 13, 12, 19, 6, 3, 16, 7, 11, 5, 9, 2, 18, 1, 8, 15, 4 |
      14, 18, 5, 16, 15, 17, 6, 9, 11, 8, 10, 13, 7, 2, 12, 3, 19, 1, 4, 20 |
      9, 12, 1, 13, 2, 3, 7, 20, 10, 8, 19, 5, 4, 18, 17, 14, 15, 16, 6, 11 |
      8, 7, 2, 6, 14, 16, 3, 10, 4, 9, 20, 18, 5, 11, 13, 19, 12, 15, 1, 17 |
      8, 9, 5, 15, 11, 16, 1, 12, 19, 20, 17, 3, 14, 18, 2, 10, 4, 7, 13, 6 |
      7, 14, 17, 13, 8, 1, 11, 10, 15, 5, 19, 16, 4, 20, 6, 3, 12, 9, 18, 2 |
      2, 17, 7, 11, 10, 1, 5, 19, 8, 16, 9, 12, 4, 14, 20, 3, 6, 18, 13, 15 |
      6, 2, 18, 13, 12, 4, 16, 5, 7, 1, 9, 20, 14, 8, 10, 15, 11, 19, 17, 3 |
      14, 13, 19, 1, 18, 6, 9, 12, 3, 15, 10, 8, 16, 4, 7, 20, 5, 17, 2, 11 |
      11, 20, 14, 5, 18, 16, 9, 8, 19, 6, 12, 3, 15, 1, 2, 10, 4, 17, 13, 7 |
      11, 12, 7, 10, 19, 18, 15, 13, 2, 16, 6, 5, 3, 17, 4, 9, 14, 20, 1, 8 |
      15, 16, 9, 13, 14, 10, 2, 19, 7, 8, 12, 20, 17, 11, 1, 4, 18, 3, 5, 6 |
      10, 6, 20, 7, 15, 16, 1, 5, 3, 4, 11, 19, 2, 14, 9, 17, 8, 12, 13, 18 |
      13, 17, 11, 7, 1, 14, 18, 10, 16, 6, 4, 15, 19, 20, 5, 9, 8, 3, 2, 12 |
      15, 6, 11, 16, 7, 9, 10, 14, 8, 13, 19, 4, 12, 1, 17, 5, 18, 2, 3, 20 |
      12, 17, 14, 7, 10, 4, 9, 16, 5, 11, 2, 6, 18, 1, 13, 3, 20, 19, 8, 15 |
      10, 18, 11, 7, 1, 2, 3, 8, 5, 4, 16, 17, 20, 13, 19, 12, 15, 9, 6, 14 |
      18, 10, 11, 4, 3, 13, 19, 5, 9, 15, 14, 2, 6, 7, 20, 1, 17, 8, 16, 12 |
      7, 18, 20, 12, 4, 13, 2, 5, 8, 1, 17, 19, 15, 16, 10, 3, 14, 9, 6, 11 |
      17, 10, 12, 3, 16, 8, 6, 1, 13, 11, 7, 9, 14, 20, 2, 15, 5, 19, 18, 4 |
      2, 12, 3, 19, 1, 8, 11, 10, 6, 5, 20, 4, 17, 13, 14, 16, 7, 18, 9, 15 |
      14, 5, 6, 18, 4, 20, 2, 3, 19, 7, 12, 9, 1, 16, 11, 17, 10, 15, 13, 8 |
      20, 12, 18, 8, 7, 15, 16, 4, 6, 17, 19, 14, 2, 1, 13, 5, 11, 3, 10, 9 |
      9, 19, 13, 10, 3, 15, 1, 17, 4, 2, 6, 12, 7, 18, 20, 16, 5, 11, 8, 14 |
      5, 13, 2, 18, 17, 9, 4, 1, 10, 14, 7, 20, 15, 6, 8, 19, 12, 11, 16, 3 |
      13, 1, 16, 18, 9, 12, 7, 3, 15, 6, 14, 4, 17, 10, 2, 19, 8, 20, 5, 11 |
      17, 7, 14, 6, 13, 19, 20, 18, 10, 5, 8, 2, 11, 3, 4, 9, 16, 15, 12, 1 |];
