n = 10;
m = 10;

d = [| 82, 19, 21, 39, 37, 73, 4, 86, 10, 34 |
     4, 11, 37, 45, 76, 18, 11, 63, 63, 66 |
     2, 38, 54, 45, 70, 82, 79, 82, 38, 85 |
     60, 48, 3, 69, 91, 22, 41, 39, 29, 59 |
     61, 8, 79, 1, 62, 15, 88, 75, 41, 73 |
     33, 70, 23, 78, 73, 15, 12, 40, 58, 71 |
     25, 10, 3, 87, 66, 95, 65, 64, 16, 6 |
     86, 70, 64, 90, 92, 27, 32, 90, 82, 99 |
     13, 12, 97, 58, 53, 25, 99, 29, 78, 80 |
     70, 40, 74, 79, 44, 75, 85, 62, 48, 36 |];

mc = [| 8, 2, 9, 5, 6, 4, 3, 1, 7, 10 |
      1, 9, 10, 3, 5, 6, 7, 4, 2, 8 |
      5, 4, 7, 9, 8, 2, 10, 6, 3, 1 |
      5, 3, 6, 8, 7, 2, 1, 10, 4, 9 |
      7, 5, 3, 10, 4, 1, 6, 9, 2, 8 |
      5, 3, 10, 9, 1, 7, 2, 6, 4, 8 |
      2, 5, 9, 1, 6, 4, 8, 7, 3, 10 |
      8, 2, 1, 9, 5, 3, 7, 4, 10, 6 |
      8, 7, 6, 1, 3, 9, 4, 2, 10, 5 |
      10, 1, 5, 2, 9, 6, 8, 3, 7, 4 |];
