n = 30;
m = 15;

d = [| 76, 60, 9, 70, 85, 64, 50, 82, 37, 51, 19, 26, 61, 62, 58 |
     10, 4, 56, 79, 49, 59, 60, 48, 69, 98, 22, 62, 78, 35, 27 |
     15, 88, 70, 69, 7, 20, 19, 37, 1, 58, 78, 55, 84, 89, 30 |
     85, 88, 91, 53, 88, 29, 88, 29, 62, 6, 56, 33, 19, 5, 32 |
     8, 46, 38, 69, 80, 24, 31, 89, 56, 48, 23, 33, 55, 63, 54 |
     61, 39, 41, 4, 50, 18, 60, 57, 17, 14, 80, 23, 15, 71, 6 |
     20, 89, 85, 24, 71, 71, 80, 65, 77, 7, 34, 49, 96, 61, 28 |
     75, 1, 25, 55, 40, 49, 5, 64, 37, 42, 66, 3, 39, 79, 89 |
     60, 11, 22, 17, 14, 23, 75, 71, 2, 86, 4, 40, 96, 74, 88 |
     95, 81, 17, 9, 82, 67, 44, 54, 44, 70, 4, 99, 70, 12, 39 |
     31, 34, 44, 72, 45, 34, 81, 75, 45, 52, 54, 5, 41, 92, 87 |
     12, 53, 90, 44, 6, 43, 24, 44, 26, 13, 97, 78, 9, 96, 61 |
     62, 62, 66, 8, 79, 59, 57, 97, 89, 93, 37, 34, 60, 97, 25 |
     69, 36, 91, 58, 32, 34, 89, 71, 65, 16, 88, 82, 38, 8, 1 |
     10, 91, 71, 11, 76, 83, 26, 14, 89, 3, 97, 96, 84, 33, 32 |
     60, 57, 43, 41, 34, 57, 16, 97, 86, 23, 98, 5, 39, 43, 76 |
     4, 10, 37, 29, 98, 99, 6, 55, 55, 19, 97, 16, 48, 85, 76 |
     1, 94, 54, 30, 1, 40, 3, 33, 86, 99, 8, 72, 40, 16, 26 |
     71, 5, 18, 20, 26, 51, 49, 95, 21, 38, 20, 41, 82, 16, 61 |
     80, 75, 30, 7, 48, 91, 4, 52, 81, 24, 94, 86, 5, 32, 50 |
     10, 90, 90, 81, 38, 89, 61, 91, 31, 33, 96, 49, 65, 81, 43 |
     75, 88, 72, 85, 71, 16, 23, 44, 49, 18, 12, 94, 95, 61, 86 |
     80, 41, 93, 81, 52, 65, 55, 20, 61, 16, 19, 45, 29, 23, 15 |
     13, 65, 76, 58, 49, 6, 72, 49, 5, 34, 57, 53, 32, 56, 40 |
     86, 88, 43, 86, 45, 25, 21, 13, 84, 42, 16, 92, 33, 19, 67 |
     31, 98, 27, 29, 38, 16, 53, 77, 57, 41, 38, 37, 18, 20, 34 |
     93, 19, 72, 79, 30, 76, 32, 84, 78, 77, 87, 4, 74, 98, 58 |
     44, 29, 67, 39, 48, 65, 68, 87, 66, 46, 41, 91, 64, 40, 19 |
     4, 44, 91, 11, 28, 26, 9, 90, 70, 56, 96, 38, 59, 60, 6 |
     99, 79, 82, 93, 94, 48, 21, 25, 10, 69, 87, 39, 73, 77, 31 |];

mc = [| 7, 6, 13, 3, 4, 2, 11, 15, 14, 8, 5, 1, 10, 9, 12 |
      8, 2, 14, 12, 4, 1, 6, 11, 10, 7, 5, 9, 13, 3, 15 |
      13, 3, 5, 4, 7, 14, 15, 6, 1, 10, 9, 8, 11, 12, 2 |
      3, 12, 15, 6, 4, 5, 9, 8, 7, 11, 2, 10, 13, 14, 1 |
      1, 10, 13, 9, 2, 5, 6, 12, 15, 4, 14, 11, 8, 7, 3 |
      6, 10, 9, 4, 15, 11, 3, 13, 12, 7, 1, 2, 5, 14, 8 |
      7, 6, 8, 5, 11, 2, 12, 9, 1, 13, 14, 15, 10, 3, 4 |
      13, 14, 8, 10, 4, 1, 9, 5, 6, 7, 2, 12, 11, 15, 3 |
      1, 13, 12, 10, 6, 14, 3, 4, 5, 8, 2, 9, 11, 15, 7 |
      14, 7, 1, 12, 2, 6, 9, 11, 13, 5, 8, 15, 4, 3, 10 |
      4, 6, 11, 8, 1, 10, 15, 3, 12, 14, 13, 5, 9, 7, 2 |
      8, 13, 3, 4, 11, 6, 7, 15, 5, 12, 1, 9, 10, 14, 2 |
      3, 10, 9, 12, 11, 14, 2, 4, 8, 7, 13, 5, 6, 15, 1 |
      14, 12, 6, 9, 1, 4, 15, 5, 10, 3, 11, 7, 13, 2, 8 |
      8, 2, 13, 10, 6, 1, 11, 7, 4, 9, 5, 15, 12, 3, 14 |
      6, 9, 13, 15, 4, 10, 2, 1, 11, 8, 12, 5, 3, 14, 7 |
      3, 11, 8, 13, 10, 5, 2, 9, 15, 1, 4, 7, 14, 6, 12 |
      8, 11, 12, 4, 1, 5, 7, 6, 9, 10, 14, 2, 13, 15, 3 |
      11, 1, 9, 4, 10, 6, 2, 3, 5, 7, 14, 12, 8, 13, 15 |
      7, 3, 14, 11, 2, 4, 12, 8, 15, 5, 10, 6, 13, 1, 9 |
      1, 13, 6, 15, 5, 2, 11, 8, 7, 14, 4, 9, 3, 10, 12 |
      8, 2, 9, 11, 7, 1, 12, 15, 3, 6, 4, 10, 14, 5, 13 |
      8, 15, 5, 7, 6, 14, 9, 11, 10, 4, 12, 3, 13, 2, 1 |
      9, 12, 2, 4, 6, 3, 14, 11, 15, 8, 1, 5, 10, 7, 13 |
      15, 10, 9, 5, 11, 14, 2, 13, 12, 4, 7, 6, 1, 3, 8 |
      14, 6, 8, 1, 5, 2, 7, 12, 10, 4, 3, 15, 11, 9, 13 |
      8, 9, 11, 1, 4, 14, 3, 10, 7, 5, 6, 15, 2, 12, 13 |
      11, 8, 6, 12, 15, 5, 4, 10, 1, 3, 7, 2, 9, 13, 14 |
      13, 3, 6, 5, 12, 10, 14, 8, 1, 9, 2, 11, 7, 15, 4 |
      7, 4, 6, 11, 12, 10, 3, 5, 8, 13, 9, 2, 14, 1, 15 |];
