n = 10;
m = 10;

d = [| 5, 49, 46, 74, 49, 6, 52, 91, 72, 79 |
     22, 76, 84, 95, 32, 63, 3, 18, 82, 88 |
     9, 22, 53, 9, 44, 44, 79, 73, 71, 78 |
     7, 49, 4, 65, 31, 71, 1, 60, 23, 68 |
     24, 91, 37, 17, 6, 77, 93, 43, 39, 31 |
     27, 67, 37, 95, 4, 96, 21, 34, 95, 18 |
     90, 10, 45, 67, 58, 53, 41, 42, 54, 58 |
     83, 96, 7, 76, 70, 7, 14, 71, 52, 7 |
     89, 19, 24, 23, 21, 77, 76, 5, 99, 64 |
     94, 78, 95, 97, 50, 98, 42, 23, 42, 92 |];

mc = [| 10, 3, 7, 1, 5, 6, 9, 2, 8, 4 |
      2, 4, 5, 10, 1, 6, 3, 8, 7, 9 |
      1, 5, 8, 9, 7, 10, 2, 4, 3, 6 |
      10, 9, 3, 1, 8, 5, 2, 7, 6, 4 |
      5, 8, 3, 2, 9, 4, 1, 6, 10, 7 |
      7, 9, 10, 4, 6, 1, 3, 2, 5, 8 |
      2, 1, 4, 9, 7, 10, 3, 8, 6, 5 |
      8, 4, 1, 6, 7, 2, 5, 10, 3, 9 |
      3, 10, 9, 1, 2, 8, 4, 6, 5, 7 |
      1, 8, 5, 10, 2, 7, 9, 4, 3, 6 |];
