n = 100;
m = 20;

d = [| 6, 52, 99, 30, 37, 67, 52, 84, 75, 43, 79, 23, 66, 86, 37, 1, 58, 68, 72, 67 |
     74, 79, 58, 19, 57, 22, 35, 38, 76, 81, 56, 64, 21, 13, 57, 64, 10, 28, 17, 19 |
     62, 98, 36, 39, 6, 46, 55, 64, 64, 56, 33, 75, 78, 73, 31, 7, 84, 74, 80, 42 |
     83, 10, 21, 48, 13, 13, 14, 51, 83, 31, 93, 87, 38, 41, 23, 79, 43, 89, 58, 1 |
     6, 22, 15, 35, 18, 5, 77, 40, 41, 26, 80, 71, 34, 63, 44, 9, 92, 51, 30, 36 |
     27, 32, 1, 95, 60, 79, 31, 15, 12, 77, 60, 27, 10, 46, 32, 75, 19, 27, 37, 25 |
     67, 45, 8, 12, 48, 12, 59, 32, 46, 32, 6, 63, 97, 15, 15, 52, 9, 69, 53, 61 |
     70, 27, 13, 33, 57, 23, 3, 49, 4, 72, 15, 11, 57, 80, 39, 27, 38, 96, 39, 32 |
     36, 11, 68, 65, 54, 9, 68, 44, 70, 34, 57, 60, 40, 55, 58, 63, 80, 71, 97, 38 |
     56, 12, 76, 28, 61, 36, 64, 42, 75, 24, 26, 4, 96, 30, 30, 24, 38, 44, 5, 84 |
     47, 92, 80, 25, 28, 50, 33, 83, 78, 72, 44, 60, 96, 51, 4, 56, 42, 80, 76, 26 |
     7, 88, 61, 30, 94, 37, 20, 24, 40, 24, 92, 2, 28, 11, 6, 75, 19, 29, 66, 92 |
     72, 89, 64, 58, 85, 12, 84, 74, 76, 21, 75, 6, 59, 61, 3, 23, 30, 63, 86, 93 |
     19, 74, 76, 66, 99, 27, 4, 98, 38, 74, 89, 62, 73, 68, 2, 6, 66, 66, 7, 17 |
     35, 78, 28, 38, 71, 27, 53, 63, 85, 1, 65, 74, 72, 82, 18, 94, 89, 54, 22, 97 |
     27, 49, 62, 40, 47, 44, 25, 50, 2, 2, 99, 97, 33, 70, 13, 71, 71, 42, 83, 91 |
     95, 55, 40, 71, 78, 8, 55, 7, 78, 75, 2, 65, 27, 43, 48, 54, 25, 7, 75, 90 |
     71, 70, 18, 84, 62, 68, 56, 61, 32, 58, 72, 20, 63, 72, 39, 47, 54, 94, 32, 9 |
     19, 46, 15, 31, 68, 34, 32, 37, 6, 61, 36, 77, 49, 77, 84, 93, 41, 27, 68, 40 |
     45, 94, 48, 40, 95, 34, 4, 67, 6, 38, 61, 37, 31, 94, 5, 3, 99, 71, 53, 29 |
     70, 15, 29, 29, 75, 93, 92, 11, 61, 86, 30, 5, 91, 2, 65, 96, 17, 21, 87, 37 |
     57, 22, 37, 95, 33, 82, 64, 49, 53, 57, 55, 90, 31, 46, 23, 35, 49, 10, 21, 98 |
     75, 92, 16, 40, 53, 35, 99, 89, 99, 98, 20, 96, 75, 24, 51, 78, 30, 77, 68, 52 |
     33, 99, 4, 13, 55, 79, 76, 15, 20, 25, 74, 53, 95, 61, 31, 71, 52, 65, 69, 80 |
     71, 69, 74, 85, 3, 45, 49, 18, 1, 41, 6, 7, 89, 85, 59, 87, 39, 59, 52, 71 |
     92, 56, 6, 81, 72, 63, 37, 38, 44, 63, 42, 78, 24, 79, 26, 48, 81, 19, 58, 28 |
     57, 39, 29, 80, 44, 94, 14, 97, 92, 90, 35, 46, 84, 22, 16, 95, 81, 2, 37, 94 |
     4, 50, 63, 93, 49, 95, 9, 40, 46, 66, 7, 34, 68, 91, 43, 27, 44, 4, 35, 48 |
     35, 38, 19, 69, 46, 10, 17, 18, 25, 32, 55, 45, 55, 82, 23, 67, 65, 6, 70, 64 |
     34, 6, 64, 1, 70, 86, 46, 60, 15, 54, 49, 29, 5, 11, 54, 63, 31, 45, 63, 19 |
     72, 69, 97, 57, 88, 55, 74, 31, 15, 79, 13, 86, 5, 17, 68, 98, 37, 24, 58, 8 |
     60, 88, 52, 64, 23, 39, 25, 80, 56, 41, 22, 54, 76, 47, 81, 57, 92, 87, 48, 11 |
     16, 48, 92, 89, 43, 77, 84, 76, 88, 8, 89, 24, 22, 74, 2, 29, 20, 8, 72, 83 |
     51, 34, 97, 51, 88, 9, 40, 30, 92, 52, 79, 75, 17, 21, 77, 16, 17, 27, 62, 31 |
     11, 68, 1, 37, 18, 81, 77, 61, 21, 92, 86, 67, 93, 48, 17, 5, 69, 55, 14, 63 |
     10, 49, 23, 64, 83, 36, 82, 80, 72, 83, 9, 11, 2, 93, 20, 32, 86, 46, 94, 38 |
     6, 98, 50, 93, 53, 33, 1, 80, 97, 5, 81, 37, 43, 51, 40, 20, 8, 39, 3, 6 |
     16, 52, 11, 9, 40, 94, 3, 18, 42, 72, 49, 87, 54, 70, 23, 49, 59, 80, 46, 83 |
     40, 85, 28, 32, 36, 58, 35, 89, 13, 30, 18, 60, 99, 33, 79, 83, 33, 17, 35, 51 |
     56, 4, 91, 72, 78, 84, 2, 76, 37, 80, 99, 45, 55, 43, 98, 94, 90, 87, 39, 86 |
     68, 29, 35, 66, 69, 87, 32, 31, 82, 63, 6, 76, 17, 22, 41, 88, 22, 45, 16, 53 |
     98, 17, 38, 39, 48, 40, 94, 88, 34, 13, 9, 87, 66, 5, 67, 14, 8, 19, 16, 12 |
     47, 83, 74, 2, 46, 75, 13, 58, 32, 19, 25, 7, 57, 36, 78, 76, 94, 60, 75, 84 |
     71, 16, 34, 96, 72, 40, 9, 88, 8, 71, 64, 62, 26, 92, 81, 9, 48, 14, 12, 82 |
     31, 1, 7, 88, 35, 29, 7, 66, 34, 61, 43, 36, 24, 29, 72, 12, 39, 54, 47, 94 |
     50, 4, 84, 37, 37, 67, 98, 67, 16, 25, 62, 14, 8, 56, 91, 37, 53, 72, 11, 18 |
     43, 53, 47, 17, 65, 6, 34, 76, 5, 34, 72, 37, 28, 98, 9, 65, 87, 55, 80, 18 |
     70, 26, 83, 5, 19, 8, 37, 74, 58, 69, 41, 92, 88, 89, 47, 57, 6, 47, 4, 35 |
     53, 24, 15, 7, 12, 29, 92, 85, 15, 20, 32, 53, 16, 38, 44, 28, 80, 85, 47, 36 |
     96, 96, 69, 88, 2, 88, 95, 18, 68, 85, 16, 27, 75, 95, 54, 38, 29, 45, 92, 57 |
     30, 95, 9, 81, 80, 73, 67, 16, 49, 37, 61, 41, 43, 66, 93, 35, 2, 99, 82, 70 |
     25, 82, 39, 82, 70, 35, 22, 4, 54, 38, 52, 38, 88, 83, 69, 9, 48, 48, 50, 2 |
     54, 6, 65, 61, 31, 48, 48, 52, 88, 84, 53, 78, 65, 60, 22, 92, 79, 43, 29, 84 |
     79, 67, 37, 54, 7, 99, 63, 31, 61, 10, 72, 93, 27, 45, 32, 88, 34, 72, 59, 70 |
     19, 26, 77, 68, 9, 78, 67, 94, 70, 86, 53, 34, 92, 78, 9, 72, 33, 92, 72, 73 |
     56, 53, 18, 37, 57, 37, 40, 40, 82, 47, 17, 33, 58, 92, 40, 42, 13, 20, 62, 89 |
     11, 20, 47, 1, 77, 84, 75, 32, 17, 10, 4, 9, 75, 77, 57, 40, 96, 93, 17, 92 |
     83, 21, 46, 96, 49, 26, 56, 98, 47, 76, 94, 14, 23, 12, 31, 69, 87, 52, 86, 6 |
     45, 90, 86, 20, 83, 69, 47, 8, 68, 54, 59, 26, 28, 80, 62, 93, 91, 76, 42, 76 |
     95, 9, 33, 1, 32, 84, 13, 42, 77, 23, 10, 5, 12, 24, 98, 18, 22, 90, 15, 60 |
     41, 35, 77, 82, 96, 90, 16, 24, 54, 61, 50, 83, 19, 12, 85, 48, 49, 19, 53, 58 |
     51, 33, 5, 59, 83, 56, 45, 3, 88, 60, 58, 13, 42, 93, 35, 60, 70, 88, 22, 89 |
     10, 97, 39, 39, 69, 53, 5, 27, 91, 82, 46, 41, 55, 35, 98, 73, 1, 32, 3, 15 |
     31, 10, 21, 49, 60, 21, 2, 79, 21, 3, 97, 78, 96, 98, 38, 28, 1, 28, 30, 11 |
     39, 76, 90, 38, 3, 48, 90, 15, 83, 17, 56, 1, 25, 99, 59, 94, 67, 83, 94, 62 |
     85, 88, 37, 24, 21, 29, 76, 46, 69, 14, 20, 42, 17, 26, 59, 87, 15, 87, 81, 56 |
     63, 23, 58, 44, 23, 62, 15, 99, 14, 67, 53, 66, 46, 57, 25, 84, 68, 27, 81, 27 |
     68, 66, 10, 44, 83, 17, 3, 6, 51, 12, 61, 46, 27, 40, 55, 78, 18, 61, 60, 34 |
     77, 18, 98, 18, 9, 29, 36, 12, 57, 7, 60, 66, 8, 54, 89, 5, 84, 35, 27, 41 |
     39, 23, 88, 49, 46, 76, 65, 78, 92, 73, 85, 2, 22, 83, 41, 71, 48, 55, 58, 75 |
     36, 80, 67, 16, 14, 50, 21, 33, 22, 87, 4, 86, 4, 95, 93, 74, 18, 21, 14, 12 |
     76, 78, 72, 22, 72, 14, 84, 98, 42, 82, 53, 25, 12, 40, 57, 12, 7, 41, 34, 63 |
     38, 95, 69, 25, 28, 82, 17, 41, 4, 16, 49, 44, 97, 1, 30, 47, 40, 49, 76, 62 |
     43, 33, 51, 68, 63, 69, 30, 97, 46, 15, 31, 75, 28, 86, 32, 10, 68, 10, 68, 74 |
     51, 50, 62, 48, 17, 26, 29, 87, 12, 17, 79, 33, 64, 87, 36, 8, 1, 34, 93, 61 |
     43, 47, 55, 69, 24, 32, 67, 70, 63, 77, 65, 1, 19, 35, 33, 78, 35, 15, 51, 25 |
     94, 35, 19, 31, 9, 87, 74, 97, 6, 51, 59, 4, 84, 84, 47, 28, 86, 92, 52, 17 |
     87, 3, 96, 36, 92, 63, 51, 41, 75, 93, 21, 80, 24, 42, 22, 84, 19, 88, 67, 28 |
     2, 40, 98, 4, 95, 39, 81, 43, 77, 95, 15, 26, 48, 86, 25, 46, 25, 54, 91, 43 |
     77, 44, 87, 4, 17, 67, 86, 38, 83, 26, 14, 75, 94, 51, 32, 23, 73, 86, 19, 31 |
     26, 20, 93, 33, 72, 80, 36, 12, 43, 59, 39, 34, 99, 85, 70, 88, 36, 27, 54, 38 |
     53, 27, 19, 97, 34, 49, 13, 89, 60, 23, 20, 79, 38, 35, 37, 81, 62, 2, 37, 87 |
     83, 26, 98, 31, 8, 64, 37, 15, 93, 8, 44, 60, 93, 30, 9, 15, 19, 43, 37, 19 |
     95, 63, 7, 94, 16, 10, 9, 9, 25, 60, 18, 90, 29, 77, 37, 61, 39, 86, 39, 80 |
     1, 48, 40, 85, 93, 90, 58, 82, 81, 58, 86, 3, 88, 90, 35, 74, 71, 98, 40, 81 |
     20, 14, 95, 6, 50, 16, 92, 16, 43, 12, 6, 62, 99, 23, 88, 64, 76, 79, 50, 5 |
     82, 15, 77, 38, 66, 34, 54, 60, 24, 75, 92, 72, 44, 73, 51, 76, 44, 72, 89, 58 |
     76, 70, 31, 63, 41, 16, 98, 22, 98, 25, 39, 94, 34, 77, 50, 64, 24, 65, 19, 90 |
     15, 32, 14, 25, 65, 15, 93, 40, 56, 87, 43, 93, 43, 89, 67, 22, 64, 34, 94, 42 |
     22, 17, 10, 5, 52, 38, 49, 80, 82, 55, 61, 33, 26, 31, 14, 27, 11, 30, 76, 84 |
     35, 81, 22, 20, 64, 50, 98, 8, 37, 61, 22, 13, 88, 10, 89, 19, 73, 63, 41, 60 |
     38, 73, 52, 2, 66, 48, 67, 25, 37, 3, 65, 23, 37, 37, 6, 11, 70, 79, 87, 20 |
     69, 55, 94, 22, 20, 42, 61, 71, 77, 4, 23, 90, 51, 30, 38, 19, 27, 39, 35, 60 |
     51, 93, 18, 41, 40, 44, 21, 70, 64, 28, 19, 4, 68, 80, 72, 51, 48, 40, 69, 77 |
     43, 86, 89, 17, 75, 50, 31, 8, 58, 33, 36, 9, 66, 3, 64, 1, 1, 22, 73, 45 |
     53, 11, 78, 21, 75, 81, 17, 77, 7, 37, 25, 78, 10, 87, 41, 57, 60, 21, 76, 40 |
     75, 38, 32, 96, 98, 45, 26, 62, 37, 26, 8, 68, 50, 72, 38, 72, 64, 31, 98, 39 |
     7, 74, 61, 77, 25, 66, 26, 31, 34, 52, 12, 19, 35, 18, 94, 1, 56, 65, 67, 27 |
     81, 68, 66, 65, 59, 58, 32, 49, 56, 37, 46, 16, 46, 44, 82, 34, 42, 94, 40, 44 |
     63, 66, 8, 9, 1, 3, 45, 12, 17, 63, 24, 8, 64, 93, 82, 26, 10, 99, 36, 20 |];

mc = [| 4, 17, 6, 1, 20, 19, 15, 3, 14, 16, 9, 11, 10, 12, 2, 7, 13, 8, 5, 18 |
      19, 10, 16, 9, 20, 13, 11, 12, 15, 1, 18, 17, 4, 3, 6, 5, 2, 7, 14, 8 |
      4, 15, 17, 9, 10, 7, 18, 20, 5, 16, 19, 8, 14, 12, 1, 6, 13, 2, 3, 11 |
      9, 17, 18, 15, 2, 6, 19, 16, 12, 1, 20, 3, 5, 14, 8, 4, 13, 11, 10, 7 |
      12, 6, 19, 4, 5, 3, 10, 2, 14, 15, 1, 13, 8, 11, 20, 9, 17, 16, 18, 7 |
      7, 16, 19, 13, 1, 14, 12, 9, 18, 6, 15, 11, 17, 5, 10, 4, 2, 8, 3, 20 |
      3, 20, 4, 14, 17, 7, 2, 15, 8, 5, 12, 9, 18, 13, 11, 16, 10, 1, 6, 19 |
      5, 11, 9, 12, 15, 10, 20, 7, 4, 14, 1, 16, 3, 18, 17, 19, 6, 13, 8, 2 |
      18, 3, 17, 9, 20, 13, 6, 12, 2, 7, 14, 16, 15, 4, 11, 5, 8, 19, 1, 10 |
      2, 17, 14, 5, 12, 10, 7, 11, 15, 16, 8, 6, 9, 4, 1, 3, 19, 13, 20, 18 |
      20, 14, 18, 13, 15, 12, 2, 16, 6, 19, 17, 7, 1, 11, 10, 4, 9, 5, 8, 3 |
      1, 6, 3, 5, 2, 11, 10, 16, 18, 14, 12, 7, 8, 20, 15, 9, 17, 13, 19, 4 |
      14, 7, 12, 8, 6, 3, 16, 18, 4, 10, 5, 13, 11, 1, 20, 19, 15, 2, 9, 17 |
      12, 1, 20, 14, 15, 11, 9, 6, 5, 4, 8, 3, 10, 19, 18, 2, 16, 13, 17, 7 |
      8, 3, 1, 11, 10, 14, 15, 19, 18, 13, 9, 7, 16, 2, 12, 20, 6, 5, 17, 4 |
      16, 15, 10, 14, 12, 20, 9, 4, 17, 11, 2, 19, 8, 7, 18, 5, 13, 6, 1, 3 |
      16, 14, 1, 13, 8, 12, 7, 17, 4, 6, 9, 10, 11, 5, 3, 2, 18, 20, 15, 19 |
      17, 9, 2, 20, 12, 11, 13, 7, 8, 19, 18, 1, 16, 6, 15, 4, 5, 10, 14, 3 |
      15, 1, 16, 11, 6, 13, 4, 10, 19, 17, 20, 2, 8, 12, 14, 3, 18, 9, 5, 7 |
      8, 6, 16, 7, 18, 14, 15, 19, 5, 10, 17, 12, 2, 20, 13, 3, 9, 1, 4, 11 |
      20, 11, 9, 17, 12, 19, 8, 3, 13, 14, 16, 5, 2, 7, 4, 1, 18, 6, 15, 10 |
      13, 6, 20, 19, 3, 15, 17, 11, 7, 1, 8, 10, 2, 16, 18, 9, 12, 5, 14, 4 |
      13, 17, 8, 15, 3, 20, 4, 14, 11, 19, 2, 10, 12, 16, 7, 1, 18, 6, 5, 9 |
      13, 19, 14, 15, 9, 20, 17, 10, 12, 16, 8, 1, 11, 5, 7, 3, 18, 2, 6, 4 |
      15, 9, 1, 13, 3, 18, 12, 16, 10, 11, 14, 17, 8, 6, 2, 7, 4, 5, 19, 20 |
      17, 13, 18, 12, 14, 19, 8, 7, 9, 15, 11, 5, 2, 16, 10, 3, 4, 20, 1, 6 |
      1, 18, 7, 17, 14, 20, 5, 4, 6, 10, 16, 19, 3, 2, 12, 15, 11, 8, 9, 13 |
      2, 5, 7, 17, 15, 14, 12, 13, 19, 11, 8, 4, 3, 18, 9, 20, 1, 16, 6, 10 |
      6, 12, 3, 8, 20, 16, 4, 2, 9, 7, 18, 1, 11, 10, 17, 5, 15, 13, 19, 14 |
      15, 20, 19, 13, 11, 4, 17, 3, 10, 18, 1, 6, 12, 8, 7, 5, 14, 2, 16, 9 |
      9, 8, 20, 14, 3, 5, 1, 11, 18, 15, 4, 13, 12, 10, 16, 7, 2, 19, 17, 6 |
      11, 19, 12, 18, 5, 20, 14, 10, 17, 6, 4, 9, 13, 15, 7, 2, 8, 16, 1, 3 |
      8, 7, 1, 4, 20, 16, 17, 3, 11, 12, 5, 13, 2, 18, 14, 9, 15, 6, 19, 10 |
      9, 2, 17, 13, 18, 16, 7, 10, 11, 1, 20, 3, 5, 19, 8, 15, 4, 12, 14, 6 |
      13, 14, 16, 10, 12, 20, 5, 9, 3, 7, 19, 15, 11, 4, 18, 1, 6, 8, 2, 17 |
      17, 3, 16, 14, 8, 1, 19, 11, 20, 12, 5, 13, 18, 7, 15, 2, 4, 6, 10, 9 |
      7, 10, 19, 18, 5, 17, 6, 16, 13, 20, 2, 1, 4, 12, 11, 8, 3, 15, 14, 9 |
      13, 5, 9, 4, 2, 11, 18, 7, 16, 8, 20, 6, 15, 19, 12, 1, 14, 3, 17, 10 |
      10, 16, 7, 3, 11, 4, 9, 20, 8, 6, 18, 1, 19, 2, 15, 12, 13, 14, 17, 5 |
      8, 18, 14, 6, 1, 9, 7, 16, 3, 15, 10, 2, 4, 13, 5, 11, 20, 19, 12, 17 |
      18, 8, 20, 13, 19, 14, 16, 7, 3, 5, 1, 12, 17, 4, 11, 2, 9, 6, 10, 15 |
      8, 15, 20, 10, 9, 14, 3, 2, 7, 4, 17, 13, 19, 5, 11, 12, 18, 6, 16, 1 |
      11, 4, 1, 17, 12, 8, 2, 16, 10, 5, 6, 18, 14, 3, 15, 13, 20, 7, 19, 9 |
      20, 5, 13, 12, 9, 10, 11, 8, 4, 3, 14, 19, 6, 17, 1, 15, 7, 18, 16, 2 |
      6, 10, 4, 7, 8, 3, 2, 5, 9, 11, 18, 15, 13, 14, 1, 12, 16, 17, 19, 20 |
      17, 8, 16, 20, 19, 1, 3, 7, 15, 4, 13, 2, 5, 6, 11, 9, 12, 10, 14, 18 |
      16, 3, 18, 8, 9, 15, 19, 6, 14, 5, 1, 17, 10, 2, 12, 7, 13, 20, 4, 11 |
      2, 4, 3, 16, 14, 9, 17, 20, 12, 18, 10, 7, 15, 11, 6, 13, 5, 19, 8, 1 |
      20, 1, 10, 6, 14, 15, 12, 11, 18, 19, 8, 5, 3, 2, 7, 16, 13, 9, 4, 17 |
      4, 20, 2, 17, 12, 18, 16, 5, 3, 8, 11, 1, 14, 13, 7, 9, 6, 19, 10, 15 |
      6, 15, 2, 14, 8, 12, 1, 5, 3, 11, 9, 7, 17, 20, 4, 18, 10, 13, 19, 16 |
      18, 17, 1, 4, 14, 3, 5, 7, 20, 8, 2, 9, 13, 11, 6, 15, 12, 19, 16, 10 |
      12, 17, 20, 16, 6, 10, 19, 5, 13, 18, 8, 3, 9, 1, 14, 4, 11, 2, 15, 7 |
      1, 5, 19, 16, 14, 9, 18, 7, 13, 11, 15, 4, 2, 6, 10, 8, 12, 20, 3, 17 |
      17, 19, 14, 10, 7, 8, 6, 16, 12, 11, 3, 1, 9, 5, 20, 4, 15, 2, 18, 13 |
      20, 5, 2, 7, 3, 18, 11, 4, 6, 9, 14, 13, 16, 12, 15, 10, 19, 8, 1, 17 |
      1, 11, 5, 4, 17, 15, 13, 3, 9, 20, 7, 14, 19, 10, 2, 18, 8, 16, 6, 12 |
      17, 7, 1, 18, 3, 16, 20, 4, 15, 14, 12, 6, 10, 8, 11, 9, 2, 5, 19, 13 |
      19, 15, 3, 8, 9, 7, 17, 4, 16, 20, 13, 10, 14, 11, 2, 5, 12, 6, 18, 1 |
      16, 12, 13, 3, 15, 8, 5, 9, 2, 18, 20, 4, 19, 10, 1, 17, 6, 14, 7, 11 |
      17, 19, 6, 16, 8, 3, 2, 7, 4, 20, 14, 11, 10, 9, 1, 15, 5, 13, 18, 12 |
      19, 16, 6, 3, 8, 9, 10, 5, 14, 18, 7, 13, 20, 11, 2, 4, 15, 1, 12, 17 |
      20, 12, 14, 6, 4, 8, 1, 7, 11, 2, 3, 18, 5, 10, 19, 9, 16, 15, 13, 17 |
      13, 18, 8, 5, 12, 16, 1, 3, 19, 20, 14, 6, 2, 11, 7, 4, 9, 10, 15, 17 |
      17, 16, 2, 10, 20, 7, 12, 14, 11, 15, 1, 8, 9, 3, 6, 4, 18, 19, 5, 13 |
      17, 19, 16, 18, 5, 8, 11, 13, 4, 20, 14, 1, 3, 9, 2, 15, 10, 6, 12, 7 |
      14, 11, 3, 13, 5, 16, 20, 1, 12, 19, 15, 10, 17, 9, 7, 4, 8, 18, 6, 2 |
      16, 14, 2, 9, 7, 1, 3, 20, 8, 11, 10, 6, 5, 12, 15, 4, 19, 17, 18, 13 |
      14, 16, 8, 1, 20, 15, 9, 11, 10, 18, 7, 12, 6, 3, 2, 19, 5, 17, 4, 13 |
      14, 8, 6, 1, 10, 7, 16, 12, 4, 11, 9, 5, 2, 13, 19, 15, 17, 20, 3, 18 |
      14, 20, 5, 16, 15, 1, 6, 11, 18, 3, 8, 2, 4, 12, 19, 13, 17, 7, 10, 9 |
      20, 12, 18, 7, 19, 17, 11, 1, 4, 6, 13, 3, 9, 15, 5, 2, 8, 14, 16, 10 |
      2, 15, 13, 11, 20, 9, 3, 16, 8, 14, 10, 5, 6, 4, 19, 7, 17, 18, 12, 1 |
      7, 16, 20, 19, 2, 12, 14, 3, 11, 15, 13, 17, 5, 4, 6, 8, 9, 18, 1, 10 |
      17, 16, 1, 8, 2, 5, 7, 18, 19, 13, 10, 15, 9, 4, 12, 3, 11, 20, 14, 6 |
      13, 19, 2, 6, 20, 8, 17, 18, 7, 14, 3, 4, 1, 15, 11, 9, 16, 12, 5, 10 |
      6, 9, 15, 13, 17, 2, 20, 1, 18, 16, 5, 4, 12, 8, 3, 7, 11, 10, 14, 19 |
      2, 9, 16, 11, 13, 1, 7, 18, 8, 4, 10, 19, 12, 14, 17, 3, 15, 5, 20, 6 |
      16, 1, 4, 10, 8, 6, 11, 9, 5, 19, 18, 20, 2, 15, 3, 7, 17, 12, 13, 14 |
      11, 20, 3, 18, 17, 15, 5, 14, 16, 4, 1, 7, 9, 12, 8, 10, 2, 6, 19, 13 |
      18, 13, 1, 14, 9, 17, 4, 8, 20, 2, 11, 3, 19, 12, 7, 10, 15, 5, 6, 16 |
      8, 5, 4, 12, 10, 9, 1, 19, 18, 17, 13, 7, 20, 11, 3, 6, 15, 2, 16, 14 |
      6, 16, 10, 15, 9, 17, 7, 11, 13, 8, 5, 18, 19, 4, 2, 1, 12, 14, 3, 20 |
      17, 19, 12, 8, 6, 13, 2, 16, 7, 4, 14, 11, 15, 18, 5, 1, 3, 10, 9, 20 |
      19, 17, 20, 14, 18, 1, 11, 2, 7, 3, 4, 10, 6, 16, 8, 9, 5, 15, 12, 13 |
      17, 6, 3, 13, 1, 14, 2, 9, 7, 20, 15, 18, 4, 12, 10, 11, 16, 8, 5, 19 |
      5, 10, 19, 15, 4, 13, 7, 12, 16, 3, 1, 8, 18, 20, 14, 9, 2, 17, 6, 11 |
      10, 5, 18, 6, 3, 15, 17, 8, 11, 12, 9, 16, 4, 2, 14, 20, 19, 13, 7, 1 |
      17, 13, 10, 1, 6, 20, 3, 19, 12, 4, 2, 5, 14, 7, 8, 18, 9, 11, 16, 15 |
      3, 15, 1, 9, 20, 6, 16, 5, 11, 10, 19, 14, 8, 13, 18, 7, 2, 4, 17, 12 |
      16, 11, 1, 3, 15, 14, 19, 12, 2, 7, 17, 18, 9, 6, 5, 13, 4, 8, 20, 10 |
      9, 13, 8, 19, 2, 16, 18, 6, 20, 15, 4, 11, 1, 5, 7, 14, 17, 12, 3, 10 |
      2, 15, 7, 13, 12, 5, 17, 11, 10, 1, 8, 20, 4, 18, 6, 14, 16, 3, 9, 19 |
      17, 18, 5, 6, 4, 2, 8, 20, 12, 11, 14, 7, 3, 15, 19, 16, 9, 1, 13, 10 |
      3, 7, 14, 9, 11, 16, 8, 18, 6, 4, 15, 2, 13, 17, 5, 1, 10, 12, 20, 19 |
      19, 12, 13, 17, 7, 16, 6, 14, 3, 5, 10, 8, 1, 15, 20, 9, 4, 11, 18, 2 |
      19, 17, 5, 7, 11, 12, 15, 6, 3, 10, 16, 13, 20, 4, 1, 8, 9, 2, 18, 14 |
      1, 8, 11, 18, 20, 7, 9, 13, 5, 16, 14, 15, 17, 6, 3, 2, 4, 12, 19, 10 |
      2, 3, 9, 12, 5, 8, 19, 14, 7, 16, 6, 10, 15, 13, 11, 4, 17, 20, 18, 1 |
      18, 17, 12, 11, 5, 10, 19, 8, 2, 20, 4, 9, 3, 15, 14, 7, 1, 16, 13, 6 |];
