n = 100;
m = 20;

d = [| 12, 95, 17, 65, 89, 71, 73, 74, 19, 36, 25, 75, 77, 46, 44, 75, 2, 52, 83, 21 |
     72, 20, 81, 53, 89, 34, 24, 9, 48, 91, 81, 10, 88, 63, 14, 62, 89, 31, 46, 25 |
     23, 86, 8, 81, 45, 52, 42, 84, 49, 49, 55, 41, 38, 43, 25, 86, 83, 66, 61, 47 |
     91, 6, 9, 83, 70, 22, 27, 52, 85, 9, 46, 86, 38, 9, 2, 19, 5, 55, 24, 13 |
     67, 15, 24, 96, 24, 53, 23, 83, 73, 50, 17, 25, 11, 17, 43, 73, 88, 61, 99, 80 |
     89, 47, 46, 32, 34, 24, 9, 19, 12, 31, 3, 1, 33, 93, 20, 94, 58, 8, 67, 63 |
     11, 98, 72, 67, 93, 72, 44, 1, 6, 13, 32, 63, 18, 42, 76, 90, 48, 65, 80, 98 |
     55, 61, 68, 40, 83, 31, 59, 98, 3, 59, 33, 76, 82, 87, 95, 47, 78, 6, 67, 30 |
     31, 29, 47, 76, 1, 46, 39, 3, 21, 12, 19, 44, 52, 37, 72, 45, 48, 4, 83, 86 |
     88, 26, 67, 83, 50, 35, 87, 56, 21, 53, 86, 65, 48, 88, 15, 57, 72, 25, 89, 66 |
     61, 4, 21, 13, 31, 34, 91, 56, 70, 41, 72, 33, 91, 40, 84, 84, 28, 99, 86, 24 |
     81, 97, 72, 77, 56, 19, 76, 56, 97, 22, 81, 43, 84, 6, 84, 29, 44, 52, 37, 20 |
     54, 97, 43, 40, 97, 13, 54, 42, 56, 28, 33, 42, 15, 55, 59, 40, 70, 91, 38, 13 |
     37, 36, 45, 21, 85, 2, 62, 85, 24, 62, 41, 20, 2, 66, 85, 39, 91, 75, 58, 75 |
     93, 83, 14, 66, 25, 65, 82, 45, 58, 59, 23, 36, 97, 75, 55, 63, 86, 11, 81, 52 |
     14, 42, 82, 30, 25, 26, 56, 38, 79, 68, 77, 5, 78, 36, 92, 16, 7, 7, 25, 39 |
     70, 5, 9, 11, 7, 2, 79, 47, 1, 63, 42, 39, 38, 45, 82, 85, 57, 15, 37, 68 |
     18, 14, 3, 96, 33, 69, 81, 49, 94, 83, 92, 68, 53, 73, 56, 82, 11, 59, 19, 9 |
     26, 10, 59, 40, 91, 79, 33, 45, 45, 17, 52, 12, 97, 83, 85, 79, 17, 98, 48, 92 |
     88, 20, 88, 29, 69, 63, 71, 50, 94, 19, 17, 76, 38, 34, 99, 54, 34, 64, 14, 19 |
     39, 69, 64, 94, 65, 38, 8, 41, 61, 12, 95, 86, 99, 79, 54, 9, 36, 85, 25, 34 |
     78, 85, 19, 6, 95, 96, 70, 88, 46, 62, 12, 89, 78, 2, 79, 57, 35, 95, 9, 47 |
     74, 70, 41, 99, 25, 85, 93, 11, 78, 78, 25, 60, 32, 70, 49, 64, 86, 53, 1, 81 |
     50, 26, 12, 71, 65, 70, 23, 92, 99, 94, 86, 97, 65, 78, 70, 77, 48, 79, 16, 48 |
     7, 37, 5, 94, 51, 61, 28, 13, 69, 92, 16, 3, 70, 1, 55, 74, 30, 66, 53, 30 |
     2, 30, 46, 68, 99, 61, 26, 4, 92, 68, 64, 66, 10, 53, 83, 97, 20, 69, 48, 72 |
     40, 63, 62, 50, 57, 99, 23, 3, 90, 56, 37, 70, 27, 52, 27, 93, 73, 50, 74, 14 |
     35, 37, 45, 15, 95, 28, 79, 51, 51, 85, 9, 35, 5, 35, 62, 65, 25, 37, 36, 32 |
     50, 60, 85, 28, 19, 39, 72, 37, 5, 96, 46, 65, 61, 21, 98, 48, 54, 49, 77, 39 |
     60, 67, 76, 69, 76, 88, 13, 69, 13, 9, 70, 67, 91, 80, 65, 5, 49, 83, 52, 44 |
     46, 97, 89, 48, 25, 97, 71, 50, 45, 28, 29, 85, 5, 68, 23, 33, 82, 52, 88, 31 |
     23, 17, 63, 18, 15, 62, 69, 65, 5, 33, 92, 28, 95, 38, 4, 94, 24, 89, 52, 17 |
     54, 48, 18, 55, 67, 81, 56, 81, 15, 4, 8, 90, 4, 12, 64, 99, 46, 22, 10, 80 |
     36, 63, 42, 81, 95, 21, 75, 58, 54, 83, 42, 54, 31, 10, 69, 73, 95, 93, 89, 42 |
     36, 73, 62, 53, 83, 83, 66, 68, 67, 61, 32, 53, 12, 1, 80, 56, 51, 54, 84, 48 |
     95, 73, 39, 70, 20, 84, 96, 59, 67, 91, 29, 95, 58, 91, 41, 64, 16, 58, 46, 79 |
     22, 67, 58, 9, 78, 73, 61, 19, 57, 24, 70, 97, 44, 98, 79, 36, 36, 10, 46, 25 |
     90, 17, 98, 68, 46, 61, 70, 51, 77, 66, 41, 35, 92, 97, 38, 46, 20, 15, 15, 21 |
     80, 89, 17, 89, 14, 5, 51, 43, 18, 52, 47, 73, 67, 71, 56, 16, 37, 50, 67, 41 |
     16, 45, 29, 59, 69, 94, 41, 77, 76, 21, 99, 53, 86, 59, 49, 23, 30, 67, 92, 70 |
     10, 81, 8, 91, 84, 74, 44, 63, 42, 92, 67, 95, 35, 95, 16, 3, 42, 93, 73, 39 |
     30, 77, 91, 17, 75, 51, 38, 13, 73, 8, 48, 84, 37, 99, 4, 69, 91, 64, 76, 30 |
     4, 55, 56, 18, 84, 88, 24, 95, 95, 31, 23, 88, 48, 87, 43, 97, 52, 51, 76, 35 |
     36, 28, 27, 65, 18, 57, 74, 7, 96, 87, 17, 38, 91, 80, 17, 35, 94, 9, 68, 41 |
     78, 79, 69, 72, 27, 65, 53, 79, 19, 56, 87, 79, 18, 65, 20, 92, 40, 43, 31, 57 |
     97, 89, 33, 69, 17, 79, 71, 6, 43, 66, 92, 96, 89, 97, 39, 35, 96, 34, 13, 81 |
     65, 28, 2, 16, 73, 27, 96, 42, 41, 69, 12, 3, 11, 87, 8, 11, 60, 54, 14, 46 |
     13, 4, 5, 97, 51, 97, 99, 55, 16, 86, 5, 61, 1, 93, 26, 22, 1, 96, 83, 35 |
     51, 99, 69, 51, 26, 55, 75, 28, 11, 60, 54, 7, 26, 13, 15, 58, 63, 72, 77, 81 |
     89, 88, 63, 68, 78, 39, 21, 59, 47, 74, 41, 88, 18, 68, 93, 21, 26, 17, 64, 14 |
     84, 38, 35, 96, 61, 71, 10, 60, 97, 51, 31, 81, 49, 25, 50, 17, 9, 81, 93, 82 |
     12, 35, 92, 87, 92, 42, 35, 23, 58, 45, 96, 18, 49, 23, 41, 66, 91, 47, 65, 57 |
     50, 99, 86, 15, 52, 84, 64, 13, 88, 71, 56, 3, 32, 1, 99, 2, 26, 96, 52, 72 |
     47, 57, 40, 36, 93, 51, 36, 51, 71, 28, 69, 47, 24, 66, 4, 30, 46, 75, 94, 73 |
     19, 42, 23, 45, 27, 76, 30, 18, 25, 80, 40, 27, 62, 90, 41, 39, 43, 69, 26, 36 |
     56, 64, 87, 20, 14, 85, 25, 83, 38, 60, 57, 71, 13, 94, 70, 16, 30, 71, 23, 26 |
     37, 91, 93, 31, 64, 76, 13, 9, 90, 62, 34, 21, 20, 91, 46, 90, 47, 23, 68, 85 |
     60, 48, 77, 80, 60, 30, 1, 96, 59, 28, 9, 64, 86, 87, 20, 26, 82, 99, 36, 53 |
     78, 37, 30, 44, 81, 92, 82, 72, 50, 14, 37, 73, 75, 93, 66, 70, 51, 43, 45, 84 |
     91, 98, 32, 62, 11, 89, 42, 50, 18, 79, 89, 60, 97, 32, 94, 48, 64, 51, 28, 35 |
     64, 97, 59, 66, 61, 41, 48, 86, 78, 40, 33, 42, 83, 25, 32, 7, 28, 23, 11, 78 |
     98, 29, 85, 4, 34, 32, 12, 57, 55, 80, 51, 21, 12, 98, 34, 41, 1, 34, 10, 76 |
     55, 81, 3, 40, 18, 4, 36, 6, 85, 30, 42, 57, 87, 30, 55, 99, 17, 10, 74, 15 |
     37, 98, 79, 80, 75, 72, 93, 81, 58, 88, 16, 37, 65, 81, 21, 56, 72, 91, 67, 84 |
     96, 21, 19, 24, 66, 33, 37, 82, 6, 94, 8, 2, 28, 94, 41, 42, 44, 36, 44, 8 |
     44, 92, 86, 5, 96, 36, 72, 76, 52, 61, 26, 94, 34, 49, 88, 61, 29, 74, 11, 25 |
     93, 86, 35, 64, 52, 65, 92, 13, 50, 35, 79, 29, 46, 89, 61, 70, 89, 29, 75, 60 |
     70, 55, 72, 45, 24, 47, 78, 22, 73, 20, 64, 31, 63, 20, 32, 70, 28, 68, 82, 77 |
     48, 41, 80, 23, 7, 48, 57, 96, 16, 22, 14, 81, 46, 71, 71, 59, 46, 64, 71, 84 |
     96, 48, 76, 74, 31, 55, 97, 41, 11, 7, 79, 88, 63, 91, 68, 60, 88, 86, 89, 37 |
     79, 1, 83, 81, 89, 67, 57, 31, 31, 18, 34, 21, 13, 23, 94, 10, 83, 91, 11, 15 |
     83, 48, 60, 33, 99, 57, 41, 58, 65, 94, 9, 97, 98, 17, 47, 55, 15, 4, 51, 16 |
     94, 67, 86, 25, 30, 10, 26, 73, 27, 94, 71, 52, 26, 89, 48, 18, 8, 70, 24, 2 |
     54, 27, 4, 40, 93, 60, 2, 91, 86, 47, 98, 44, 1, 44, 17, 7, 9, 12, 23, 55 |
     61, 22, 19, 33, 1, 7, 60, 59, 15, 17, 18, 54, 51, 18, 30, 37, 40, 91, 91, 97 |
     12, 37, 20, 7, 77, 72, 14, 3, 11, 24, 23, 31, 64, 41, 98, 68, 25, 13, 52, 6 |
     61, 50, 27, 70, 67, 95, 79, 58, 79, 64, 77, 5, 93, 11, 54, 23, 21, 81, 3, 83 |
     85, 9, 75, 47, 52, 98, 5, 23, 92, 66, 98, 96, 32, 14, 17, 40, 21, 69, 91, 84 |
     91, 66, 54, 2, 61, 74, 22, 82, 60, 68, 14, 47, 18, 15, 87, 49, 36, 75, 94, 26 |
     28, 55, 47, 8, 72, 99, 50, 55, 86, 48, 86, 61, 26, 49, 7, 42, 92, 26, 72, 2 |
     59, 28, 74, 80, 65, 94, 81, 56, 64, 39, 7, 29, 1, 53, 30, 58, 7, 96, 18, 62 |
     70, 75, 59, 55, 64, 70, 61, 60, 17, 52, 8, 80, 44, 65, 30, 61, 73, 84, 33, 13 |
     2, 67, 8, 82, 22, 90, 19, 31, 62, 65, 6, 42, 92, 39, 31, 50, 78, 77, 36, 26 |
     65, 69, 20, 87, 15, 31, 64, 19, 94, 37, 47, 62, 94, 98, 84, 96, 43, 91, 73, 98 |
     36, 57, 12, 16, 65, 24, 12, 27, 22, 8, 63, 28, 44, 31, 62, 71, 56, 63, 56, 92 |
     84, 24, 14, 30, 1, 26, 99, 82, 14, 28, 9, 28, 74, 5, 67, 31, 66, 47, 34, 39 |
     15, 87, 70, 37, 34, 80, 68, 79, 2, 13, 93, 49, 34, 75, 82, 7, 69, 59, 15, 77 |
     99, 27, 68, 10, 24, 5, 25, 80, 37, 93, 82, 71, 89, 73, 38, 14, 45, 87, 42, 21 |
     70, 27, 24, 8, 26, 60, 70, 65, 78, 68, 27, 28, 46, 21, 57, 35, 60, 6, 81, 30 |
     69, 51, 85, 13, 93, 7, 84, 1, 40, 85, 66, 58, 81, 60, 19, 72, 72, 96, 77, 5 |
     44, 73, 53, 8, 88, 25, 2, 51, 16, 43, 89, 85, 1, 62, 11, 42, 5, 46, 77, 41 |
     19, 52, 98, 95, 79, 11, 61, 50, 93, 41, 56, 49, 81, 83, 20, 69, 51, 90, 10, 30 |
     28, 96, 86, 30, 75, 29, 20, 20, 59, 17, 62, 50, 19, 87, 63, 64, 92, 25, 70, 60 |
     67, 79, 8, 18, 96, 71, 72, 65, 90, 95, 75, 20, 95, 84, 95, 21, 71, 81, 67, 45 |
     85, 84, 26, 5, 43, 28, 20, 33, 34, 89, 35, 37, 35, 97, 39, 2, 17, 6, 10, 27 |
     28, 58, 80, 32, 52, 48, 20, 29, 96, 53, 85, 68, 88, 37, 72, 77, 52, 83, 34, 68 |
     51, 33, 21, 56, 88, 14, 58, 97, 30, 54, 56, 87, 73, 86, 90, 44, 6, 74, 81, 15 |
     47, 48, 88, 15, 8, 88, 32, 17, 40, 1, 34, 31, 33, 20, 23, 65, 58, 78, 76, 30 |
     94, 54, 65, 61, 74, 66, 3, 13, 40, 90, 76, 30, 40, 23, 78, 73, 24, 39, 28, 95 |
     57, 75, 6, 35, 52, 44, 14, 99, 66, 24, 53, 64, 15, 12, 57, 31, 99, 3, 46, 80 |];

mc = [| 4, 9, 19, 16, 18, 13, 10, 2, 6, 15, 7, 8, 17, 3, 14, 1, 11, 12, 20, 5 |
      12, 11, 1, 17, 2, 16, 10, 14, 18, 19, 5, 3, 9, 8, 13, 4, 6, 7, 15, 20 |
      17, 18, 1, 16, 8, 6, 7, 3, 12, 9, 11, 15, 5, 14, 2, 20, 10, 13, 19, 4 |
      14, 4, 3, 12, 2, 20, 17, 13, 15, 9, 1, 18, 8, 16, 19, 5, 6, 11, 10, 7 |
      4, 5, 15, 17, 13, 20, 1, 7, 19, 2, 9, 16, 11, 14, 6, 8, 18, 12, 3, 10 |
      6, 13, 5, 8, 12, 15, 7, 11, 19, 14, 16, 18, 20, 9, 1, 10, 17, 3, 2, 4 |
      6, 8, 5, 15, 4, 18, 14, 20, 13, 17, 12, 2, 1, 9, 11, 10, 7, 3, 19, 16 |
      12, 7, 9, 20, 10, 13, 3, 18, 19, 17, 6, 4, 1, 5, 8, 14, 16, 15, 2, 11 |
      15, 2, 3, 8, 14, 12, 4, 11, 20, 6, 7, 9, 5, 10, 17, 19, 16, 13, 1, 18 |
      4, 3, 8, 10, 15, 6, 19, 2, 13, 14, 7, 1, 9, 12, 18, 17, 16, 11, 5, 20 |
      8, 3, 14, 17, 12, 16, 10, 13, 4, 5, 6, 11, 15, 7, 19, 2, 1, 9, 18, 20 |
      16, 19, 3, 6, 10, 1, 7, 2, 9, 4, 20, 12, 17, 15, 13, 18, 5, 8, 11, 14 |
      12, 13, 8, 7, 5, 18, 10, 20, 17, 11, 3, 14, 2, 1, 4, 15, 9, 19, 6, 16 |
      2, 19, 4, 12, 11, 16, 1, 8, 20, 15, 7, 17, 10, 3, 18, 5, 13, 14, 9, 6 |
      2, 7, 9, 17, 12, 13, 5, 18, 8, 3, 11, 14, 20, 1, 16, 19, 4, 6, 15, 10 |
      13, 16, 8, 19, 2, 15, 18, 1, 4, 12, 7, 9, 11, 3, 14, 17, 6, 20, 5, 10 |
      6, 14, 15, 5, 20, 3, 19, 18, 2, 10, 7, 16, 8, 13, 12, 1, 17, 11, 4, 9 |
      17, 2, 11, 14, 3, 19, 10, 13, 12, 4, 18, 6, 15, 5, 9, 20, 1, 16, 8, 7 |
      17, 2, 6, 4, 11, 10, 20, 5, 3, 7, 14, 13, 9, 15, 8, 1, 12, 18, 19, 16 |
      15, 4, 18, 5, 12, 6, 3, 14, 2, 7, 10, 1, 8, 11, 17, 16, 9, 20, 13, 19 |
      6, 19, 5, 20, 9, 7, 12, 1, 18, 17, 15, 14, 3, 16, 2, 13, 8, 4, 10, 11 |
      20, 7, 16, 15, 10, 19, 18, 14, 6, 5, 12, 17, 9, 13, 4, 1, 8, 2, 11, 3 |
      1, 5, 20, 2, 4, 9, 6, 18, 17, 14, 13, 3, 7, 15, 10, 16, 19, 11, 8, 12 |
      7, 1, 20, 6, 15, 17, 18, 11, 4, 12, 16, 10, 14, 13, 3, 9, 2, 19, 8, 5 |
      14, 3, 1, 6, 9, 13, 12, 5, 7, 15, 2, 8, 17, 19, 20, 11, 18, 16, 10, 4 |
      2, 8, 3, 13, 20, 1, 4, 9, 6, 5, 18, 12, 16, 10, 11, 15, 7, 19, 14, 17 |
      19, 17, 15, 20, 11, 18, 6, 4, 8, 12, 2, 16, 5, 10, 7, 9, 14, 3, 1, 13 |
      4, 11, 5, 17, 1, 15, 8, 18, 20, 9, 13, 10, 2, 12, 6, 3, 16, 19, 14, 7 |
      12, 8, 18, 13, 16, 4, 14, 9, 20, 2, 3, 7, 17, 1, 5, 11, 10, 15, 6, 19 |
      17, 7, 12, 20, 11, 15, 14, 6, 10, 16, 5, 19, 18, 2, 3, 9, 8, 4, 1, 13 |
      10, 12, 11, 1, 4, 20, 6, 7, 19, 13, 15, 17, 9, 8, 3, 16, 18, 2, 14, 5 |
      18, 2, 15, 17, 4, 12, 13, 6, 8, 19, 9, 11, 16, 5, 7, 10, 1, 3, 14, 20 |
      19, 6, 9, 16, 2, 11, 3, 18, 20, 15, 1, 10, 5, 12, 14, 17, 8, 7, 13, 4 |
      16, 11, 17, 5, 19, 6, 15, 9, 8, 18, 13, 3, 14, 1, 2, 7, 20, 4, 10, 12 |
      4, 9, 3, 2, 13, 19, 7, 11, 15, 10, 17, 6, 1, 8, 5, 12, 14, 18, 20, 16 |
      15, 3, 19, 17, 13, 7, 16, 5, 6, 8, 20, 18, 1, 9, 2, 14, 4, 11, 10, 12 |
      13, 20, 15, 14, 10, 7, 1, 8, 6, 18, 11, 5, 19, 4, 17, 9, 2, 16, 12, 3 |
      13, 6, 8, 9, 4, 17, 14, 15, 18, 19, 5, 12, 11, 2, 20, 16, 10, 3, 1, 7 |
      12, 10, 7, 13, 20, 2, 19, 17, 11, 18, 9, 15, 6, 3, 5, 14, 4, 16, 8, 1 |
      18, 3, 6, 9, 4, 7, 16, 13, 17, 2, 11, 1, 20, 15, 10, 5, 14, 19, 8, 12 |
      8, 11, 19, 5, 4, 7, 6, 17, 14, 3, 2, 20, 12, 1, 18, 16, 15, 13, 10, 9 |
      8, 20, 18, 4, 2, 19, 1, 5, 14, 7, 16, 6, 11, 12, 13, 10, 9, 17, 15, 3 |
      5, 18, 13, 8, 15, 20, 19, 11, 1, 4, 14, 2, 7, 12, 6, 10, 17, 3, 9, 16 |
      20, 16, 5, 4, 8, 3, 9, 13, 2, 6, 1, 7, 19, 11, 18, 14, 15, 12, 17, 10 |
      12, 19, 3, 16, 6, 4, 10, 8, 13, 7, 11, 5, 17, 2, 15, 9, 18, 1, 20, 14 |
      3, 9, 10, 12, 2, 16, 8, 19, 5, 20, 1, 17, 14, 13, 4, 11, 7, 6, 18, 15 |
      7, 9, 10, 19, 14, 2, 3, 1, 17, 20, 11, 5, 18, 6, 8, 4, 15, 12, 16, 13 |
      6, 10, 15, 5, 3, 11, 7, 20, 18, 14, 1, 9, 8, 12, 19, 17, 16, 2, 13, 4 |
      2, 9, 1, 11, 3, 13, 8, 10, 17, 14, 16, 18, 20, 6, 15, 12, 7, 19, 5, 4 |
      15, 8, 19, 5, 12, 11, 13, 1, 16, 3, 7, 20, 6, 4, 18, 9, 14, 10, 2, 17 |
      15, 1, 2, 12, 10, 5, 7, 20, 9, 17, 11, 13, 16, 14, 18, 6, 3, 19, 4, 8 |
      10, 19, 3, 13, 2, 4, 6, 14, 16, 17, 8, 5, 11, 20, 15, 12, 9, 1, 18, 7 |
      13, 6, 3, 1, 2, 7, 9, 14, 11, 15, 5, 4, 19, 16, 12, 8, 17, 20, 10, 18 |
      14, 5, 11, 17, 10, 4, 1, 12, 9, 19, 2, 3, 15, 18, 16, 13, 8, 6, 7, 20 |
      1, 6, 13, 12, 15, 4, 17, 2, 20, 3, 7, 14, 19, 5, 11, 8, 18, 16, 10, 9 |
      5, 12, 15, 20, 8, 9, 17, 14, 11, 1, 6, 16, 10, 13, 18, 4, 3, 19, 2, 7 |
      11, 10, 18, 9, 3, 15, 12, 13, 17, 6, 19, 2, 20, 16, 14, 4, 8, 5, 1, 7 |
      16, 10, 11, 9, 8, 13, 14, 1, 7, 2, 15, 5, 12, 18, 4, 20, 17, 6, 3, 19 |
      18, 11, 15, 8, 9, 10, 13, 5, 14, 1, 20, 6, 7, 19, 3, 12, 16, 17, 2, 4 |
      17, 6, 3, 13, 18, 20, 1, 11, 9, 7, 2, 16, 19, 5, 10, 4, 14, 8, 12, 15 |
      20, 18, 16, 4, 13, 11, 3, 2, 15, 7, 6, 9, 19, 8, 10, 14, 12, 1, 5, 17 |
      10, 12, 17, 7, 3, 16, 19, 1, 13, 2, 5, 9, 20, 15, 18, 8, 6, 11, 4, 14 |
      8, 1, 9, 10, 4, 5, 18, 7, 3, 19, 20, 12, 13, 17, 15, 16, 6, 14, 11, 2 |
      14, 20, 7, 6, 3, 8, 5, 11, 16, 18, 17, 9, 15, 19, 10, 1, 12, 2, 4, 13 |
      1, 13, 3, 16, 11, 17, 5, 4, 9, 10, 14, 19, 15, 12, 18, 6, 7, 2, 20, 8 |
      13, 20, 16, 4, 10, 3, 19, 18, 6, 7, 2, 1, 8, 15, 12, 17, 9, 5, 11, 14 |
      7, 10, 5, 16, 14, 9, 3, 17, 1, 2, 15, 19, 13, 11, 4, 20, 6, 8, 18, 12 |
      16, 1, 17, 20, 3, 11, 7, 15, 18, 6, 9, 8, 13, 19, 14, 4, 5, 12, 10, 2 |
      8, 16, 10, 19, 14, 6, 12, 20, 4, 3, 5, 7, 2, 13, 17, 9, 11, 18, 15, 1 |
      6, 4, 18, 12, 3, 7, 1, 19, 10, 15, 20, 5, 11, 17, 16, 13, 9, 8, 2, 14 |
      16, 10, 11, 6, 5, 18, 7, 20, 13, 2, 3, 19, 17, 8, 1, 4, 12, 14, 9, 15 |
      19, 18, 4, 9, 12, 17, 6, 11, 10, 14, 1, 3, 15, 16, 20, 5, 2, 13, 7, 8 |
      8, 9, 16, 3, 20, 12, 19, 5, 2, 11, 18, 14, 15, 1, 13, 7, 10, 6, 17, 4 |
      20, 2, 3, 18, 6, 17, 14, 15, 13, 12, 7, 9, 19, 8, 4, 10, 16, 5, 11, 1 |
      10, 18, 13, 1, 7, 5, 6, 12, 11, 19, 8, 15, 14, 2, 3, 4, 16, 20, 9, 17 |
      11, 3, 13, 15, 7, 5, 1, 4, 14, 6, 10, 16, 8, 19, 12, 18, 20, 2, 9, 17 |
      11, 20, 18, 8, 6, 5, 1, 14, 2, 9, 3, 7, 12, 16, 10, 13, 19, 15, 17, 4 |
      6, 17, 10, 2, 20, 4, 13, 16, 8, 1, 14, 19, 5, 15, 3, 11, 7, 9, 18, 12 |
      18, 1, 5, 15, 20, 12, 16, 4, 17, 3, 8, 6, 14, 13, 7, 2, 9, 19, 11, 10 |
      12, 16, 11, 13, 7, 2, 19, 3, 8, 10, 1, 14, 17, 15, 6, 4, 9, 20, 5, 18 |
      4, 13, 5, 7, 12, 14, 1, 3, 9, 11, 6, 8, 17, 16, 10, 20, 19, 15, 2, 18 |
      16, 19, 4, 13, 3, 5, 12, 6, 11, 20, 10, 2, 17, 1, 8, 9, 14, 18, 7, 15 |
      12, 13, 20, 16, 17, 11, 8, 2, 10, 19, 5, 6, 14, 15, 7, 3, 4, 1, 9, 18 |
      4, 12, 13, 16, 18, 3, 2, 15, 19, 7, 5, 10, 11, 20, 1, 8, 17, 6, 14, 9 |
      20, 4, 2, 5, 15, 17, 11, 18, 10, 12, 16, 1, 13, 14, 8, 3, 9, 6, 7, 19 |
      20, 7, 9, 11, 13, 18, 2, 5, 12, 19, 3, 1, 17, 6, 8, 4, 16, 15, 10, 14 |
      1, 15, 4, 9, 16, 17, 8, 13, 19, 10, 12, 6, 14, 7, 11, 5, 2, 18, 20, 3 |
      10, 7, 16, 11, 13, 5, 3, 17, 14, 12, 4, 18, 6, 1, 9, 19, 8, 20, 15, 2 |
      13, 9, 12, 8, 17, 14, 15, 18, 4, 10, 6, 1, 19, 3, 7, 16, 11, 2, 20, 5 |
      13, 19, 17, 5, 10, 9, 8, 20, 11, 1, 14, 12, 4, 6, 16, 18, 7, 15, 3, 2 |
      19, 18, 9, 12, 4, 20, 11, 14, 8, 16, 5, 10, 3, 7, 6, 1, 2, 13, 17, 15 |
      20, 18, 9, 8, 17, 13, 3, 4, 16, 14, 10, 7, 2, 5, 15, 1, 12, 6, 11, 19 |
      8, 4, 6, 14, 9, 20, 19, 16, 10, 2, 12, 13, 17, 18, 11, 5, 3, 15, 7, 1 |
      16, 11, 8, 15, 5, 13, 1, 3, 14, 4, 17, 12, 9, 7, 2, 19, 10, 18, 6, 20 |
      1, 19, 8, 14, 10, 5, 20, 13, 17, 12, 15, 6, 9, 7, 3, 4, 18, 11, 2, 16 |
      12, 9, 8, 14, 15, 6, 11, 3, 13, 16, 4, 2, 17, 1, 20, 10, 18, 5, 19, 7 |
      14, 13, 18, 20, 5, 8, 19, 10, 16, 1, 17, 2, 15, 9, 7, 12, 6, 11, 3, 4 |
      6, 9, 14, 19, 17, 2, 7, 3, 12, 13, 20, 16, 10, 15, 11, 5, 18, 8, 1, 4 |
      6, 18, 15, 13, 9, 11, 8, 19, 4, 16, 7, 3, 14, 17, 1, 10, 2, 20, 5, 12 |
      9, 19, 12, 17, 1, 10, 4, 7, 18, 11, 15, 20, 8, 16, 5, 6, 13, 3, 14, 2 |];
