n = 15;
m = 15;

d = [| 41, 56, 86, 88, 16, 58, 66, 50, 65, 90, 80, 39, 28, 91, 99 |
     35, 44, 73, 14, 82, 79, 47, 91, 29, 47, 36, 17, 11, 22, 82 |
     66, 54, 17, 74, 38, 2, 97, 22, 13, 62, 23, 50, 50, 72, 59 |
     59, 19, 30, 44, 85, 68, 74, 88, 74, 23, 71, 45, 35, 8, 29 |
     33, 26, 63, 60, 47, 57, 15, 21, 98, 43, 87, 77, 42, 69, 86 |
     56, 44, 43, 5, 86, 99, 47, 96, 49, 23, 50, 30, 83, 78, 37 |
     36, 31, 37, 11, 76, 17, 94, 85, 41, 17, 39, 83, 25, 3, 57 |
     86, 50, 4, 86, 90, 85, 8, 72, 68, 6, 18, 67, 84, 37, 45 |
     71, 85, 38, 56, 67, 1, 37, 76, 42, 12, 21, 67, 67, 34, 64 |
     81, 67, 88, 37, 89, 40, 39, 88, 51, 75, 66, 7, 52, 76, 55 |
     40, 77, 96, 30, 6, 39, 75, 8, 32, 67, 2, 42, 81, 99, 7 |
     43, 55, 96, 20, 69, 73, 21, 47, 20, 3, 75, 18, 98, 42, 12 |
     93, 15, 47, 83, 24, 64, 1, 94, 92, 98, 62, 46, 41, 48, 13 |
     29, 56, 37, 20, 88, 59, 65, 29, 82, 50, 86, 94, 90, 37, 6 |
     17, 93, 9, 9, 62, 16, 73, 80, 8, 36, 84, 3, 64, 47, 17 |];

mc = [| 15, 11, 12, 1, 13, 7, 5, 4, 2, 6, 14, 10, 8, 3, 9 |
      12, 15, 8, 13, 1, 5, 9, 10, 14, 6, 2, 4, 3, 11, 7 |
      6, 11, 4, 12, 1, 9, 5, 8, 15, 3, 7, 14, 2, 10, 13 |
      8, 12, 3, 4, 7, 9, 5, 10, 6, 2, 11, 13, 1, 15, 14 |
      2, 14, 11, 15, 5, 9, 4, 12, 8, 3, 13, 6, 7, 1, 10 |
      14, 15, 13, 4, 9, 1, 12, 7, 11, 10, 5, 6, 3, 2, 8 |
      14, 13, 8, 4, 11, 2, 9, 3, 7, 1, 5, 12, 6, 10, 15 |
      11, 1, 7, 4, 12, 8, 14, 3, 5, 15, 2, 6, 13, 9, 10 |
      9, 10, 3, 4, 15, 13, 7, 5, 1, 8, 2, 12, 14, 11, 6 |
      6, 12, 4, 8, 15, 10, 1, 5, 11, 2, 13, 9, 14, 3, 7 |
      11, 6, 14, 7, 13, 12, 10, 4, 15, 9, 8, 2, 3, 1, 5 |
      7, 4, 3, 13, 1, 10, 12, 8, 5, 6, 15, 2, 11, 9, 14 |
      13, 2, 15, 8, 12, 5, 4, 10, 7, 11, 3, 14, 6, 1, 9 |
      2, 10, 11, 15, 7, 12, 1, 5, 13, 8, 6, 9, 3, 4, 14 |
      12, 9, 15, 2, 10, 6, 14, 13, 4, 3, 11, 7, 8, 5, 1 |];
