n = 30;
m = 15;

d = [| 28, 87, 23, 63, 6, 54, 83, 84, 63, 59, 70, 8, 73, 59, 80 |
     8, 30, 8, 52, 70, 12, 38, 81, 48, 28, 44, 4, 67, 15, 73 |
     55, 15, 96, 88, 33, 13, 47, 53, 43, 47, 49, 42, 49, 90, 27 |
     69, 94, 48, 91, 51, 61, 57, 91, 8, 58, 9, 52, 43, 50, 77 |
     96, 34, 33, 23, 46, 29, 44, 15, 43, 24, 64, 36, 60, 12, 35 |
     16, 73, 48, 26, 6, 49, 25, 13, 18, 89, 10, 85, 82, 89, 28 |
     91, 16, 23, 88, 31, 23, 13, 11, 72, 36, 96, 76, 50, 35, 73 |
     42, 93, 63, 19, 85, 31, 50, 43, 50, 12, 97, 48, 71, 97, 71 |
     10, 85, 89, 53, 49, 46, 7, 35, 37, 25, 54, 2, 55, 18, 28 |
     89, 40, 26, 60, 83, 74, 6, 15, 50, 11, 22, 11, 27, 78, 94 |
     35, 92, 62, 72, 43, 45, 95, 29, 77, 35, 80, 21, 18, 2, 16 |
     66, 48, 48, 44, 34, 2, 82, 33, 97, 83, 79, 56, 49, 21, 80 |
     89, 40, 7, 97, 37, 65, 82, 85, 27, 36, 18, 56, 54, 21, 65 |
     39, 39, 62, 80, 98, 32, 30, 82, 95, 96, 22, 53, 16, 70, 25 |
     76, 82, 1, 78, 82, 58, 68, 27, 60, 20, 6, 99, 51, 28, 42 |
     12, 3, 23, 15, 6, 68, 10, 57, 86, 85, 71, 14, 22, 34, 77 |
     65, 85, 41, 45, 21, 8, 25, 1, 45, 54, 32, 25, 86, 12, 26 |
     8, 45, 89, 32, 33, 94, 60, 31, 9, 54, 86, 57, 8, 11, 6 |
     1, 49, 86, 91, 8, 44, 40, 67, 20, 94, 54, 79, 26, 41, 26 |
     76, 78, 25, 86, 43, 48, 93, 33, 70, 88, 94, 19, 2, 86, 27 |
     73, 91, 14, 92, 51, 87, 45, 36, 64, 96, 86, 76, 70, 32, 71 |
     18, 52, 7, 61, 13, 45, 31, 77, 92, 8, 1, 6, 13, 4, 60 |
     63, 13, 80, 12, 82, 70, 12, 19, 48, 36, 49, 16, 55, 95, 12 |
     30, 48, 51, 62, 96, 43, 48, 82, 8, 8, 8, 9, 4, 19, 76 |
     6, 56, 50, 40, 77, 7, 51, 56, 84, 79, 53, 13, 26, 84, 24 |
     2, 91, 75, 61, 54, 31, 77, 40, 86, 96, 42, 41, 12, 19, 47 |
     96, 26, 2, 68, 32, 46, 46, 2, 95, 18, 35, 43, 84, 31, 74 |
     79, 8, 35, 54, 12, 63, 96, 96, 7, 8, 13, 81, 66, 27, 27 |
     66, 55, 85, 86, 58, 66, 87, 74, 96, 63, 8, 56, 80, 7, 88 |
     34, 68, 97, 76, 23, 16, 76, 30, 29, 70, 73, 2, 91, 73, 85 |];

mc = [| 2, 6, 7, 1, 10, 3, 15, 11, 12, 8, 4, 13, 9, 5, 14 |
      10, 3, 7, 5, 9, 13, 1, 2, 6, 4, 11, 15, 12, 8, 14 |
      7, 6, 14, 10, 4, 15, 13, 9, 8, 11, 12, 3, 2, 5, 1 |
      8, 4, 9, 7, 11, 1, 13, 5, 15, 6, 12, 2, 10, 14, 3 |
      6, 5, 1, 11, 4, 13, 7, 10, 2, 9, 14, 12, 8, 3, 15 |
      8, 9, 15, 10, 6, 14, 12, 4, 2, 11, 7, 13, 5, 3, 1 |
      5, 6, 14, 2, 1, 11, 9, 3, 10, 13, 12, 7, 4, 15, 8 |
      3, 13, 5, 2, 10, 15, 7, 9, 11, 6, 8, 12, 4, 1, 14 |
      2, 12, 13, 1, 14, 7, 11, 8, 5, 4, 9, 10, 6, 15, 3 |
      14, 2, 7, 6, 15, 12, 5, 9, 10, 8, 13, 4, 1, 11, 3 |
      6, 7, 3, 11, 2, 5, 15, 12, 10, 8, 4, 14, 9, 13, 1 |
      6, 7, 1, 10, 4, 13, 15, 14, 2, 11, 12, 5, 9, 8, 3 |
      12, 5, 15, 6, 9, 4, 1, 10, 11, 14, 3, 13, 8, 7, 2 |
      5, 6, 11, 3, 1, 8, 14, 2, 4, 15, 7, 13, 10, 12, 9 |
      5, 2, 12, 15, 13, 6, 9, 10, 1, 11, 14, 8, 7, 3, 4 |
      2, 13, 3, 14, 5, 12, 8, 11, 15, 4, 10, 6, 9, 7, 1 |
      14, 6, 15, 4, 1, 3, 10, 7, 11, 9, 5, 12, 13, 2, 8 |
      3, 12, 4, 8, 7, 10, 14, 2, 9, 15, 6, 5, 1, 11, 13 |
      7, 6, 5, 1, 13, 8, 2, 4, 12, 11, 15, 14, 3, 9, 10 |
      8, 7, 14, 5, 9, 3, 11, 2, 13, 15, 6, 1, 10, 4, 12 |
      11, 10, 9, 13, 14, 12, 8, 5, 7, 1, 4, 6, 2, 3, 15 |
      15, 14, 2, 8, 11, 7, 10, 6, 5, 4, 3, 1, 12, 13, 9 |
      2, 7, 15, 9, 8, 11, 4, 3, 10, 14, 13, 6, 5, 1, 12 |
      15, 10, 3, 8, 14, 12, 9, 7, 11, 13, 4, 6, 2, 1, 5 |
      1, 6, 4, 11, 2, 13, 15, 5, 3, 12, 7, 10, 8, 14, 9 |
      14, 4, 15, 13, 10, 12, 9, 5, 1, 2, 3, 7, 11, 6, 8 |
      12, 3, 13, 10, 5, 8, 9, 15, 1, 2, 4, 14, 6, 7, 11 |
      8, 10, 7, 9, 5, 6, 4, 13, 3, 14, 11, 15, 2, 12, 1 |
      8, 2, 10, 15, 7, 6, 14, 4, 11, 1, 12, 5, 3, 9, 13 |
      6, 14, 5, 12, 11, 10, 7, 9, 15, 8, 2, 1, 3, 4, 13 |];
