n = 50;
m = 15;

d = [| 91, 60, 92, 23, 1, 65, 45, 65, 20, 46, 17, 91, 98, 11, 54 |
     88, 97, 43, 2, 6, 84, 6, 65, 36, 74, 9, 25, 19, 82, 36 |
     20, 77, 79, 94, 12, 82, 41, 40, 13, 16, 74, 71, 6, 99, 98 |
     39, 78, 52, 14, 78, 60, 2, 28, 97, 51, 43, 25, 5, 99, 63 |
     7, 39, 6, 61, 2, 73, 41, 34, 91, 72, 70, 1, 61, 76, 16 |
     93, 78, 53, 54, 87, 35, 69, 9, 32, 50, 38, 43, 92, 88, 43 |
     8, 1, 57, 60, 43, 9, 62, 70, 46, 78, 49, 4, 70, 95, 70 |
     7, 25, 6, 33, 11, 95, 65, 49, 85, 68, 31, 76, 78, 31, 76 |
     98, 53, 25, 18, 74, 63, 4, 70, 38, 45, 8, 14, 33, 8, 22 |
     87, 46, 76, 29, 5, 49, 81, 99, 72, 3, 23, 64, 75, 27, 22 |
     36, 59, 55, 6, 77, 80, 70, 41, 34, 99, 21, 43, 44, 38, 25 |
     39, 39, 11, 16, 79, 45, 88, 23, 19, 8, 16, 62, 70, 8, 20 |
     19, 2, 24, 7, 91, 72, 2, 50, 17, 13, 3, 76, 35, 34, 78 |
     86, 64, 37, 75, 21, 39, 72, 24, 62, 95, 49, 16, 64, 18, 78 |
     96, 69, 9, 66, 95, 3, 80, 30, 34, 65, 41, 41, 21, 91, 39 |
     50, 33, 80, 9, 74, 60, 99, 44, 2, 80, 33, 10, 15, 38, 36 |
     50, 64, 98, 60, 91, 67, 59, 27, 14, 21, 65, 40, 17, 73, 21 |
     39, 15, 78, 53, 83, 53, 4, 52, 12, 22, 29, 49, 64, 86, 92 |
     93, 70, 37, 6, 44, 59, 46, 15, 79, 45, 49, 7, 46, 60, 11 |
     38, 16, 99, 6, 51, 73, 88, 53, 85, 96, 65, 24, 94, 45, 95 |
     85, 20, 78, 55, 79, 7, 9, 89, 57, 21, 68, 76, 47, 21, 96 |
     57, 83, 48, 41, 1, 27, 70, 77, 12, 95, 85, 7, 80, 70, 43 |
     66, 12, 93, 37, 22, 92, 51, 26, 91, 43, 24, 32, 45, 48, 81 |
     78, 25, 63, 59, 55, 7, 1, 74, 81, 69, 41, 5, 1, 86, 92 |
     20, 96, 53, 1, 48, 83, 41, 60, 41, 68, 2, 96, 98, 72, 38 |
     90, 73, 5, 47, 14, 48, 98, 33, 74, 44, 65, 79, 69, 95, 5 |
     71, 76, 95, 63, 79, 65, 94, 75, 61, 7, 61, 83, 92, 62, 27 |
     82, 28, 60, 47, 19, 97, 37, 54, 70, 84, 3, 58, 50, 87, 93 |
     97, 77, 60, 15, 79, 88, 45, 66, 46, 52, 57, 48, 22, 5, 46 |
     28, 72, 23, 95, 72, 9, 21, 97, 90, 56, 60, 33, 68, 43, 27 |
     98, 26, 70, 34, 45, 4, 31, 94, 9, 75, 50, 71, 36, 69, 6 |
     15, 30, 29, 56, 43, 66, 80, 61, 27, 50, 74, 81, 12, 15, 68 |
     96, 70, 94, 99, 31, 85, 60, 42, 1, 52, 69, 91, 50, 6, 70 |
     34, 30, 38, 32, 77, 87, 52, 20, 86, 76, 35, 83, 26, 71, 78 |
     34, 86, 10, 27, 21, 25, 51, 80, 21, 27, 42, 68, 32, 17, 58 |
     74, 8, 62, 79, 41, 98, 76, 32, 36, 35, 46, 48, 31, 40, 98 |
     1, 40, 38, 36, 41, 89, 72, 57, 5, 37, 92, 97, 91, 94, 18 |
     48, 70, 9, 57, 78, 85, 46, 91, 87, 93, 36, 21, 22, 20, 49 |
     33, 39, 88, 30, 9, 42, 52, 21, 49, 53, 29, 58, 32, 70, 2 |
     81, 81, 56, 34, 24, 85, 33, 59, 11, 89, 58, 94, 24, 74, 6 |
     20, 54, 73, 96, 96, 48, 32, 52, 13, 6, 92, 99, 34, 79, 40 |
     73, 7, 79, 70, 76, 40, 47, 7, 37, 87, 47, 89, 41, 27, 24 |
     9, 22, 1, 41, 78, 93, 73, 71, 97, 17, 67, 13, 60, 63, 84 |
     52, 27, 81, 24, 85, 50, 64, 67, 98, 72, 5, 75, 18, 90, 5 |
     17, 15, 10, 22, 90, 84, 14, 93, 85, 23, 52, 7, 75, 10, 43 |
     8, 20, 91, 49, 45, 10, 64, 34, 46, 19, 62, 28, 79, 17, 65 |
     94, 97, 38, 69, 88, 77, 3, 85, 2, 80, 42, 25, 31, 80, 95 |
     29, 64, 58, 28, 54, 98, 72, 92, 32, 47, 46, 87, 84, 87, 19 |
     84, 81, 47, 98, 10, 29, 61, 91, 95, 62, 27, 15, 38, 69, 16 |
     78, 60, 2, 63, 32, 17, 28, 59, 37, 14, 32, 33, 69, 45, 59 |];

mc = [| 4, 8, 13, 14, 9, 6, 3, 11, 12, 2, 7, 1, 10, 5, 15 |
      10, 9, 4, 11, 7, 13, 8, 6, 15, 14, 5, 1, 2, 12, 3 |
      2, 10, 5, 11, 12, 13, 6, 14, 3, 8, 7, 1, 9, 4, 15 |
      10, 11, 15, 13, 7, 5, 12, 8, 3, 6, 9, 4, 1, 14, 2 |
      4, 13, 2, 3, 10, 14, 7, 8, 1, 11, 6, 9, 12, 5, 15 |
      3, 7, 8, 4, 2, 10, 1, 11, 6, 9, 15, 5, 13, 12, 14 |
      12, 15, 14, 13, 9, 4, 3, 10, 6, 7, 1, 11, 5, 8, 2 |
      4, 6, 1, 5, 3, 12, 11, 7, 9, 14, 2, 13, 10, 15, 8 |
      6, 15, 3, 14, 11, 8, 7, 5, 1, 2, 9, 13, 10, 4, 12 |
      6, 7, 13, 11, 2, 14, 8, 10, 5, 9, 3, 4, 1, 15, 12 |
      11, 12, 10, 15, 6, 8, 2, 9, 1, 13, 5, 7, 4, 14, 3 |
      6, 4, 9, 12, 15, 13, 5, 3, 14, 11, 10, 2, 7, 8, 1 |
      6, 7, 4, 12, 1, 5, 11, 9, 2, 10, 15, 8, 13, 14, 3 |
      5, 12, 9, 14, 15, 13, 11, 2, 3, 4, 1, 6, 7, 8, 10 |
      13, 15, 8, 14, 10, 1, 4, 9, 6, 5, 11, 2, 12, 3, 7 |
      6, 3, 4, 8, 2, 5, 1, 15, 13, 11, 9, 10, 12, 7, 14 |
      8, 9, 12, 13, 15, 10, 6, 2, 7, 4, 3, 1, 5, 14, 11 |
      9, 3, 2, 13, 6, 14, 15, 7, 10, 12, 11, 8, 1, 5, 4 |
      6, 2, 3, 13, 12, 9, 5, 4, 11, 1, 10, 8, 14, 15, 7 |
      8, 2, 1, 11, 6, 13, 14, 5, 15, 7, 4, 10, 12, 3, 9 |
      5, 1, 4, 7, 6, 9, 13, 2, 3, 14, 11, 8, 10, 15, 12 |
      10, 7, 12, 3, 6, 14, 15, 1, 11, 4, 8, 9, 2, 13, 5 |
      6, 8, 1, 13, 4, 10, 15, 12, 3, 11, 9, 14, 7, 2, 5 |
      6, 11, 2, 8, 13, 5, 7, 9, 1, 10, 4, 12, 15, 3, 14 |
      12, 13, 4, 14, 1, 8, 3, 15, 6, 7, 11, 2, 10, 9, 5 |
      6, 9, 3, 12, 13, 8, 4, 11, 15, 1, 5, 7, 10, 14, 2 |
      13, 10, 2, 6, 9, 1, 8, 7, 5, 14, 15, 12, 11, 4, 3 |
      13, 11, 7, 2, 1, 14, 15, 12, 10, 3, 9, 4, 5, 6, 8 |
      8, 14, 9, 6, 12, 2, 1, 5, 15, 13, 7, 11, 10, 4, 3 |
      5, 1, 4, 15, 10, 6, 9, 3, 2, 7, 13, 8, 14, 12, 11 |
      15, 14, 10, 2, 3, 12, 1, 11, 9, 4, 8, 7, 6, 13, 5 |
      3, 14, 11, 8, 10, 6, 12, 4, 2, 15, 13, 5, 9, 1, 7 |
      10, 3, 15, 13, 5, 7, 14, 8, 12, 2, 1, 4, 6, 9, 11 |
      14, 10, 2, 12, 7, 5, 8, 4, 11, 13, 9, 15, 6, 1, 3 |
      10, 14, 11, 5, 8, 6, 13, 9, 1, 2, 4, 12, 3, 15, 7 |
      2, 6, 10, 13, 4, 7, 3, 1, 12, 8, 15, 11, 9, 14, 5 |
      6, 9, 3, 13, 8, 1, 11, 4, 7, 10, 15, 2, 12, 14, 5 |
      3, 8, 7, 10, 15, 13, 5, 9, 1, 12, 2, 6, 4, 11, 14 |
      11, 12, 13, 10, 2, 4, 14, 3, 15, 8, 7, 9, 5, 1, 6 |
      12, 8, 15, 4, 2, 1, 9, 7, 10, 3, 6, 5, 14, 11, 13 |
      1, 4, 5, 9, 7, 13, 11, 3, 14, 10, 6, 8, 15, 12, 2 |
      5, 6, 14, 10, 15, 2, 9, 4, 3, 12, 1, 8, 11, 7, 13 |
      2, 12, 11, 3, 4, 1, 6, 5, 8, 13, 14, 10, 9, 15, 7 |
      10, 7, 9, 2, 11, 13, 1, 6, 3, 5, 12, 14, 8, 4, 15 |
      10, 9, 14, 11, 4, 7, 2, 1, 3, 5, 15, 6, 13, 12, 8 |
      11, 2, 6, 12, 13, 8, 3, 15, 1, 10, 4, 5, 7, 14, 9 |
      2, 10, 4, 6, 3, 7, 14, 15, 8, 11, 1, 12, 5, 13, 9 |
      2, 13, 10, 11, 6, 3, 9, 4, 1, 8, 12, 14, 7, 15, 5 |
      1, 15, 5, 8, 14, 9, 11, 12, 13, 4, 6, 3, 10, 2, 7 |
      11, 9, 13, 8, 6, 2, 5, 7, 12, 4, 3, 1, 15, 14, 10 |];
