n = 15;
m = 8;

d = [| 89, 50, 14, 91, 4, 74, 88, 58 |
     9, 87, 98, 94, 41, 84, 28, 97 |
     92, 56, 22, 40, 87, 45, 46, 29 |
     17, 33, 58, 83, 40, 17, 52, 30 |
     78, 97, 59, 21, 77, 56, 55, 95 |
     66, 98, 5, 24, 39, 59, 53, 77 |
     90, 81, 24, 79, 2, 33, 49, 8 |
     35, 30, 73, 76, 18, 14, 12, 33 |
     85, 73, 20, 32, 70, 57, 80, 80 |
     11, 45, 37, 8, 79, 98, 87, 91 |
     21, 87, 93, 96, 93, 97, 21, 13 |
     12, 70, 29, 40, 85, 98, 44, 33 |
     64, 76, 59, 24, 42, 49, 3, 18 |
     61, 67, 81, 89, 97, 83, 74, 83 |
     74, 71, 35, 23, 1, 27, 20, 65 |];

mc = [| 2, 5, 7, 6, 8, 1, 3, 4 |
      4, 5, 1, 2, 6, 8, 3, 7 |
      1, 8, 5, 6, 7, 3, 4, 2 |
      3, 8, 1, 5, 2, 7, 4, 6 |
      6, 3, 5, 8, 4, 2, 7, 1 |
      4, 2, 5, 1, 6, 3, 8, 7 |
      7, 2, 6, 3, 5, 4, 8, 1 |
      1, 5, 4, 8, 2, 3, 6, 7 |
      5, 7, 6, 4, 1, 8, 2, 3 |
      2, 4, 5, 7, 3, 8, 1, 6 |
      2, 3, 1, 7, 4, 8, 6, 5 |
      8, 4, 5, 6, 7, 2, 1, 3 |
      1, 8, 2, 5, 6, 4, 7, 3 |
      1, 8, 4, 7, 6, 2, 3, 5 |
      8, 6, 2, 7, 4, 1, 5, 3 |];
