n = 20;
m = 15;

d = [| 41, 26, 68, 16, 94, 75, 79, 17, 3, 5, 89, 57, 37, 5, 62 |
     6, 57, 2, 45, 30, 61, 24, 29, 91, 39, 97, 78, 16, 4, 65 |
     85, 50, 4, 23, 84, 43, 19, 84, 81, 29, 6, 28, 38, 56, 88 |
     25, 39, 56, 83, 77, 68, 47, 55, 67, 39, 92, 23, 90, 58, 81 |
     84, 24, 93, 27, 62, 60, 4, 40, 98, 2, 23, 89, 15, 72, 78 |
     3, 30, 29, 33, 47, 11, 15, 22, 59, 41, 25, 79, 22, 51, 34 |
     21, 39, 52, 10, 22, 24, 30, 49, 29, 5, 13, 77, 35, 55, 99 |
     37, 8, 12, 6, 86, 97, 98, 32, 21, 82, 88, 91, 46, 21, 28 |
     34, 53, 25, 53, 96, 2, 28, 88, 92, 42, 16, 94, 11, 81, 4 |
     9, 93, 85, 73, 48, 66, 74, 62, 71, 62, 4, 30, 90, 48, 12 |
     82, 92, 81, 77, 69, 32, 20, 82, 6, 49, 1, 61, 94, 14, 52 |
     91, 70, 87, 12, 3, 23, 13, 7, 5, 14, 63, 48, 37, 19, 86 |
     88, 7, 85, 73, 89, 64, 89, 50, 21, 71, 88, 14, 99, 78, 85 |
     44, 87, 16, 65, 61, 80, 39, 65, 5, 55, 61, 25, 81, 27, 86 |
     39, 70, 86, 72, 94, 18, 90, 64, 12, 86, 9, 49, 70, 15, 68 |
     23, 58, 44, 19, 95, 47, 82, 35, 1, 42, 66, 69, 11, 60, 83 |
     20, 67, 34, 82, 78, 90, 70, 33, 28, 48, 82, 82, 88, 99, 15 |
     24, 52, 60, 24, 99, 12, 29, 38, 99, 60, 41, 27, 74, 59, 56 |
     89, 42, 82, 99, 65, 48, 1, 81, 21, 58, 57, 91, 54, 65, 33 |
     3, 25, 31, 52, 79, 22, 4, 45, 63, 82, 69, 55, 24, 87, 85 |];

mc = [| 12, 10, 8, 3, 6, 7, 13, 2, 4, 15, 14, 1, 11, 5, 9 |
      11, 5, 1, 10, 15, 12, 9, 14, 3, 2, 8, 13, 7, 6, 4 |
      14, 2, 13, 5, 10, 3, 8, 12, 4, 1, 6, 7, 9, 11, 15 |
      8, 7, 14, 11, 1, 2, 9, 15, 12, 5, 3, 6, 4, 13, 10 |
      9, 2, 4, 12, 13, 11, 8, 7, 6, 5, 14, 15, 3, 10, 1 |
      9, 10, 1, 11, 3, 2, 7, 14, 8, 6, 4, 15, 12, 13, 5 |
      10, 7, 5, 1, 9, 6, 13, 11, 14, 12, 2, 4, 15, 3, 8 |
      5, 13, 1, 11, 2, 12, 7, 3, 9, 14, 4, 10, 6, 15, 8 |
      12, 14, 4, 7, 13, 2, 6, 15, 3, 8, 1, 11, 9, 5, 10 |
      9, 1, 10, 4, 15, 12, 2, 8, 14, 11, 6, 3, 7, 5, 13 |
      8, 13, 14, 10, 1, 15, 12, 5, 11, 7, 2, 4, 6, 9, 3 |
      9, 7, 12, 14, 11, 5, 4, 15, 3, 10, 6, 13, 1, 8, 2 |
      5, 9, 11, 15, 6, 12, 8, 1, 14, 7, 10, 13, 2, 3, 4 |
      13, 4, 2, 11, 14, 3, 7, 9, 8, 1, 6, 12, 10, 5, 15 |
      12, 7, 9, 14, 8, 15, 11, 13, 3, 5, 6, 10, 1, 2, 4 |
      13, 6, 7, 4, 10, 2, 15, 12, 3, 8, 5, 1, 11, 14, 9 |
      10, 8, 4, 11, 1, 15, 5, 13, 2, 9, 6, 12, 14, 7, 3 |
      15, 9, 13, 8, 2, 12, 4, 14, 5, 1, 6, 10, 7, 11, 3 |
      9, 6, 5, 13, 11, 15, 14, 8, 1, 12, 10, 3, 7, 4, 2 |
      11, 10, 1, 9, 4, 7, 12, 14, 2, 3, 5, 15, 13, 6, 8 |];
