n = 30;
m = 20;

d = [| 93, 32, 85, 36, 4, 12, 74, 46, 83, 53, 56, 41, 2, 99, 29, 30, 63, 21, 81, 35 |
     90, 77, 39, 46, 46, 22, 67, 67, 82, 89, 42, 67, 45, 77, 11, 32, 97, 76, 27, 30 |
     10, 20, 97, 70, 69, 49, 67, 43, 79, 16, 25, 69, 13, 11, 3, 90, 48, 34, 98, 12 |
     29, 20, 23, 85, 79, 44, 26, 20, 68, 71, 89, 85, 20, 1, 99, 19, 35, 81, 22, 21 |
     38, 19, 47, 71, 51, 74, 29, 85, 73, 42, 86, 87, 43, 61, 62, 13, 28, 76, 97, 80 |
     20, 29, 85, 21, 8, 1, 61, 81, 38, 2, 28, 53, 1, 27, 48, 79, 77, 89, 21, 88 |
     21, 53, 28, 29, 96, 69, 37, 78, 63, 64, 78, 95, 33, 2, 55, 18, 18, 40, 3, 5 |
     32, 44, 39, 14, 71, 84, 74, 65, 36, 46, 33, 58, 46, 22, 62, 71, 29, 86, 25, 52 |
     3, 26, 61, 11, 2, 94, 37, 59, 84, 76, 59, 60, 57, 38, 95, 77, 10, 37, 33, 54 |
     72, 62, 76, 20, 92, 3, 44, 48, 11, 1, 53, 97, 18, 97, 16, 60, 5, 53, 79, 84 |
     65, 70, 65, 63, 70, 32, 97, 34, 8, 16, 35, 49, 83, 46, 84, 35, 30, 13, 4, 76 |
     12, 99, 19, 19, 48, 35, 68, 77, 12, 45, 76, 88, 99, 25, 16, 91, 55, 4, 98, 91 |
     70, 61, 44, 86, 59, 99, 94, 82, 67, 41, 30, 6, 41, 11, 96, 54, 81, 15, 88, 17 |
     73, 26, 53, 82, 70, 53, 46, 15, 1, 82, 87, 42, 90, 98, 80, 78, 93, 72, 16, 40 |
     88, 50, 61, 65, 12, 74, 66, 81, 18, 79, 64, 50, 80, 95, 61, 42, 91, 82, 43, 71 |
     43, 10, 4, 42, 20, 77, 49, 46, 70, 13, 95, 83, 88, 95, 24, 37, 48, 53, 39, 75 |
     51, 1, 46, 86, 93, 29, 59, 87, 60, 38, 41, 36, 21, 42, 6, 24, 87, 11, 5, 80 |
     29, 74, 3, 48, 56, 40, 72, 82, 7, 36, 45, 45, 8, 89, 55, 30, 72, 45, 43, 74 |
     1, 73, 87, 22, 73, 34, 96, 2, 60, 34, 94, 52, 64, 11, 97, 38, 90, 29, 22, 78 |
     1, 34, 3, 48, 55, 59, 85, 49, 8, 23, 78, 27, 34, 97, 99, 52, 46, 48, 33, 94 |
     42, 4, 37, 81, 21, 5, 47, 14, 27, 55, 74, 49, 73, 71, 90, 78, 88, 18, 84, 37 |
     89, 77, 31, 75, 5, 47, 91, 76, 74, 80, 61, 93, 78, 49, 36, 44, 49, 40, 95, 38 |
     64, 41, 86, 14, 40, 25, 95, 47, 76, 98, 11, 2, 92, 60, 67, 53, 85, 19, 53, 50 |
     8, 46, 18, 33, 17, 83, 12, 16, 87, 93, 90, 26, 95, 3, 4, 96, 43, 12, 34, 41 |
     53, 53, 34, 37, 80, 83, 31, 84, 65, 19, 37, 70, 65, 27, 29, 1, 73, 13, 87, 65 |
     41, 94, 44, 35, 78, 86, 53, 89, 1, 43, 81, 30, 94, 87, 70, 55, 23, 78, 13, 41 |
     73, 78, 60, 94, 59, 12, 6, 92, 12, 46, 79, 89, 36, 70, 95, 48, 85, 44, 89, 6 |
     79, 93, 8, 16, 49, 59, 35, 28, 24, 88, 22, 94, 5, 17, 74, 68, 40, 52, 53, 97 |
     54, 63, 72, 36, 77, 90, 84, 10, 64, 21, 3, 9, 62, 14, 99, 58, 72, 57, 91, 4 |
     76, 83, 25, 14, 9, 4, 91, 32, 85, 21, 89, 17, 87, 24, 81, 56, 31, 42, 24, 21 |];

mc = [| 9, 17, 3, 18, 16, 13, 7, 11, 10, 1, 12, 2, 4, 8, 5, 14, 20, 19, 15, 6 |
      17, 11, 13, 8, 14, 16, 15, 10, 2, 12, 4, 9, 7, 20, 5, 19, 6, 1, 18, 3 |
      3, 11, 9, 8, 2, 17, 1, 18, 6, 7, 16, 15, 14, 13, 10, 12, 5, 20, 4, 19 |
      2, 19, 12, 7, 5, 20, 16, 11, 14, 18, 9, 4, 10, 17, 15, 8, 6, 3, 13, 1 |
      20, 19, 15, 3, 11, 18, 5, 1, 6, 16, 10, 13, 2, 7, 8, 17, 14, 4, 9, 12 |
      11, 6, 7, 18, 16, 1, 8, 13, 10, 19, 9, 4, 15, 20, 5, 17, 14, 3, 2, 12 |
      9, 17, 8, 11, 3, 13, 20, 14, 6, 19, 10, 16, 18, 2, 12, 4, 1, 5, 15, 7 |
      10, 19, 2, 9, 1, 17, 4, 13, 14, 8, 7, 12, 6, 5, 16, 11, 15, 20, 18, 3 |
      1, 8, 7, 10, 2, 6, 3, 13, 5, 15, 4, 17, 14, 11, 9, 19, 12, 18, 20, 16 |
      16, 7, 4, 12, 19, 15, 11, 9, 18, 20, 17, 8, 14, 10, 6, 1, 5, 3, 2, 13 |
      6, 9, 16, 1, 19, 12, 8, 4, 14, 18, 3, 10, 2, 15, 13, 11, 17, 7, 20, 5 |
      15, 14, 2, 5, 6, 13, 9, 16, 11, 18, 20, 10, 4, 1, 12, 3, 17, 8, 19, 7 |
      2, 13, 14, 5, 10, 16, 4, 20, 6, 8, 15, 19, 9, 1, 3, 12, 7, 11, 18, 17 |
      8, 11, 17, 15, 12, 4, 14, 20, 10, 18, 5, 16, 3, 19, 9, 2, 7, 1, 6, 13 |
      6, 10, 13, 18, 2, 8, 20, 19, 15, 3, 9, 14, 11, 5, 7, 16, 17, 4, 12, 1 |
      11, 9, 8, 13, 6, 15, 19, 14, 5, 16, 4, 17, 18, 7, 2, 10, 20, 3, 1, 12 |
      18, 16, 6, 9, 14, 1, 12, 20, 2, 8, 5, 13, 10, 15, 3, 19, 4, 11, 7, 17 |
      8, 16, 1, 18, 14, 3, 20, 5, 15, 19, 10, 9, 4, 7, 17, 6, 2, 13, 11, 12 |
      10, 20, 8, 15, 16, 2, 14, 7, 17, 4, 9, 18, 6, 19, 11, 12, 5, 3, 13, 1 |
      19, 8, 18, 15, 4, 14, 11, 1, 9, 2, 13, 20, 3, 6, 7, 12, 17, 16, 5, 10 |
      12, 13, 18, 6, 10, 15, 8, 3, 20, 1, 2, 19, 11, 16, 4, 14, 17, 5, 7, 9 |
      18, 8, 9, 20, 5, 6, 12, 19, 2, 13, 7, 3, 14, 15, 11, 4, 16, 17, 10, 1 |
      5, 19, 15, 20, 8, 11, 2, 4, 3, 10, 17, 13, 6, 1, 14, 12, 9, 18, 16, 7 |
      10, 17, 1, 13, 6, 14, 18, 4, 7, 19, 5, 8, 12, 20, 9, 16, 11, 3, 15, 2 |
      17, 13, 8, 10, 16, 15, 11, 6, 4, 2, 5, 18, 20, 1, 9, 3, 7, 12, 19, 14 |
      18, 9, 17, 3, 1, 12, 15, 20, 14, 2, 8, 16, 4, 13, 7, 5, 11, 19, 10, 6 |
      15, 12, 14, 18, 16, 8, 13, 4, 17, 1, 3, 2, 19, 5, 10, 7, 6, 9, 11, 20 |
      12, 13, 16, 18, 19, 10, 1, 5, 15, 2, 11, 9, 8, 17, 14, 20, 4, 3, 6, 7 |
      3, 6, 2, 8, 5, 9, 1, 4, 19, 15, 17, 13, 12, 10, 20, 7, 14, 16, 18, 11 |
      5, 14, 3, 13, 12, 10, 18, 16, 15, 6, 19, 1, 7, 17, 4, 2, 20, 11, 9, 8 |];
