n = 50;
m = 15;

d = [| 14, 81, 56, 32, 47, 43, 45, 37, 32, 75, 83, 49, 39, 64, 57 |
     47, 7, 18, 97, 70, 48, 37, 46, 54, 83, 82, 47, 38, 55, 19 |
     39, 10, 84, 92, 20, 45, 74, 90, 75, 64, 67, 45, 46, 20, 41 |
     35, 58, 95, 49, 42, 61, 38, 50, 6, 4, 60, 39, 34, 9, 38 |
     16, 71, 14, 18, 90, 85, 67, 7, 40, 40, 60, 50, 67, 5, 94 |
     37, 36, 97, 22, 8, 73, 88, 29, 61, 71, 66, 92, 66, 28, 72 |
     10, 19, 86, 4, 28, 36, 21, 23, 64, 21, 70, 36, 38, 33, 62 |
     87, 99, 41, 15, 67, 5, 7, 85, 54, 84, 31, 40, 41, 7, 37 |
     10, 80, 43, 12, 88, 66, 91, 43, 8, 79, 5, 47, 87, 95, 2 |
     69, 50, 7, 97, 58, 48, 1, 13, 30, 71, 47, 55, 97, 92, 70 |
     33, 92, 3, 40, 38, 55, 78, 32, 63, 81, 77, 51, 62, 67, 95 |
     38, 1, 14, 54, 18, 1, 66, 29, 62, 96, 21, 35, 44, 8, 60 |
     20, 88, 80, 55, 76, 94, 6, 54, 19, 41, 64, 99, 15, 17, 81 |
     22, 41, 42, 48, 72, 85, 59, 88, 12, 5, 88, 10, 86, 81, 49 |
     74, 6, 9, 90, 64, 33, 12, 88, 50, 13, 98, 88, 29, 31, 43 |
     7, 4, 80, 20, 56, 27, 24, 76, 75, 78, 78, 65, 98, 73, 48 |
     77, 62, 49, 23, 91, 79, 16, 91, 34, 13, 23, 92, 11, 32, 49 |
     40, 84, 64, 11, 9, 86, 22, 46, 93, 36, 13, 36, 58, 39, 23 |
     58, 3, 34, 95, 16, 66, 72, 87, 92, 85, 88, 44, 18, 92, 36 |
     7, 27, 28, 95, 92, 29, 26, 84, 9, 23, 57, 2, 43, 49, 34 |
     69, 13, 90, 68, 73, 65, 28, 17, 30, 90, 15, 68, 94, 25, 29 |
     47, 48, 72, 43, 73, 2, 53, 70, 76, 2, 93, 19, 5, 86, 13 |
     20, 39, 31, 84, 20, 34, 62, 69, 39, 81, 59, 46, 49, 42, 17 |
     93, 53, 55, 11, 31, 11, 17, 6, 28, 29, 94, 6, 3, 34, 48 |
     34, 46, 72, 29, 84, 81, 75, 84, 4, 70, 57, 33, 46, 3, 89 |
     93, 77, 64, 65, 38, 30, 17, 59, 56, 21, 64, 39, 34, 8, 59 |
     18, 55, 89, 83, 21, 19, 43, 48, 29, 70, 79, 89, 96, 16, 86 |
     41, 96, 27, 64, 47, 37, 9, 87, 47, 11, 29, 95, 1, 5, 90 |
     25, 1, 21, 44, 54, 55, 30, 84, 78, 16, 91, 81, 60, 42, 16 |
     10, 24, 17, 84, 32, 93, 37, 57, 25, 94, 49, 60, 90, 82, 72 |
     32, 71, 68, 53, 35, 79, 72, 17, 25, 23, 82, 88, 46, 49, 51 |
     27, 87, 53, 44, 23, 56, 95, 26, 97, 77, 23, 10, 64, 62, 14 |
     95, 33, 47, 52, 69, 83, 19, 28, 27, 48, 26, 36, 59, 95, 88 |
     41, 12, 25, 99, 81, 4, 37, 50, 80, 99, 23, 70, 30, 52, 58 |
     89, 61, 9, 12, 94, 27, 1, 29, 96, 87, 26, 45, 22, 67, 8 |
     9, 57, 1, 21, 79, 37, 34, 20, 64, 42, 2, 29, 12, 10, 64 |
     74, 89, 26, 88, 60, 99, 44, 78, 85, 63, 13, 49, 73, 48, 72 |
     71, 90, 51, 41, 15, 91, 80, 89, 10, 26, 48, 17, 49, 9, 60 |
     25, 79, 78, 72, 93, 44, 81, 83, 79, 10, 17, 54, 30, 48, 37 |
     45, 32, 10, 53, 45, 14, 39, 63, 94, 97, 12, 58, 29, 39, 26 |
     62, 34, 32, 37, 59, 88, 33, 42, 84, 66, 25, 27, 47, 77, 93 |
     20, 22, 14, 67, 60, 74, 41, 9, 60, 18, 29, 89, 32, 12, 4 |
     36, 59, 11, 95, 38, 73, 4, 58, 12, 86, 41, 20, 72, 1, 23 |
     14, 54, 98, 85, 49, 39, 26, 96, 65, 19, 27, 91, 11, 57, 49 |
     73, 59, 1, 11, 76, 96, 68, 18, 80, 14, 6, 49, 38, 6, 82 |
     74, 55, 4, 34, 78, 59, 70, 70, 35, 10, 65, 75, 75, 95, 79 |
     9, 46, 47, 21, 66, 95, 83, 78, 35, 30, 8, 92, 11, 92, 22 |
     36, 27, 79, 35, 78, 87, 77, 69, 97, 34, 85, 87, 70, 71, 27 |
     19, 94, 44, 53, 44, 86, 76, 92, 84, 59, 16, 82, 46, 94, 62 |
     1, 88, 29, 7, 31, 14, 19, 50, 55, 13, 84, 48, 26, 53, 39 |];

mc = [| 5, 2, 7, 11, 13, 15, 10, 9, 1, 14, 4, 8, 3, 12, 6 |
      8, 10, 12, 3, 1, 15, 2, 14, 13, 7, 5, 6, 9, 11, 4 |
      10, 7, 3, 1, 6, 5, 2, 12, 13, 11, 9, 8, 4, 14, 15 |
      8, 2, 15, 11, 13, 14, 3, 5, 4, 12, 10, 6, 1, 7, 9 |
      8, 15, 5, 11, 1, 12, 13, 2, 10, 9, 14, 6, 3, 7, 4 |
      7, 4, 2, 13, 6, 9, 11, 5, 10, 1, 14, 3, 8, 15, 12 |
      10, 8, 6, 14, 5, 12, 15, 13, 1, 2, 7, 9, 3, 4, 11 |
      2, 13, 9, 3, 14, 1, 15, 6, 4, 8, 10, 12, 7, 11, 5 |
      1, 14, 4, 8, 13, 3, 2, 10, 7, 11, 15, 5, 6, 9, 12 |
      15, 11, 2, 7, 6, 3, 8, 12, 14, 13, 5, 9, 4, 10, 1 |
      3, 12, 1, 2, 6, 10, 9, 13, 5, 7, 11, 14, 15, 8, 4 |
      15, 9, 5, 3, 12, 10, 6, 8, 13, 2, 11, 1, 14, 4, 7 |
      8, 10, 4, 7, 11, 6, 9, 2, 1, 13, 3, 15, 14, 12, 5 |
      13, 9, 5, 2, 10, 8, 7, 12, 6, 1, 15, 3, 14, 11, 4 |
      6, 13, 7, 14, 5, 2, 11, 1, 10, 15, 8, 12, 3, 9, 4 |
      1, 14, 12, 7, 4, 13, 9, 15, 3, 5, 2, 10, 11, 6, 8 |
      2, 9, 11, 4, 7, 5, 12, 3, 14, 15, 6, 10, 8, 13, 1 |
      13, 7, 2, 1, 8, 6, 5, 9, 12, 14, 10, 4, 3, 11, 15 |
      13, 7, 15, 10, 11, 8, 4, 3, 6, 9, 12, 14, 5, 1, 2 |
      9, 1, 8, 13, 7, 10, 5, 14, 6, 11, 3, 4, 15, 12, 2 |
      13, 1, 5, 2, 14, 7, 15, 12, 6, 4, 9, 10, 3, 8, 11 |
      9, 1, 4, 12, 13, 8, 6, 2, 3, 11, 5, 15, 14, 10, 7 |
      6, 4, 1, 7, 13, 9, 5, 15, 14, 8, 12, 10, 3, 2, 11 |
      1, 4, 15, 5, 9, 7, 14, 13, 8, 11, 3, 6, 2, 10, 12 |
      13, 1, 5, 7, 8, 10, 3, 12, 4, 2, 6, 14, 15, 11, 9 |
      11, 12, 13, 8, 6, 5, 14, 9, 1, 7, 3, 4, 2, 10, 15 |
      10, 5, 15, 14, 2, 13, 6, 7, 9, 3, 8, 4, 11, 1, 12 |
      15, 4, 3, 5, 14, 1, 2, 13, 11, 12, 9, 7, 8, 6, 10 |
      9, 8, 3, 7, 15, 13, 1, 5, 4, 14, 6, 11, 2, 10, 12 |
      2, 13, 7, 5, 8, 4, 9, 10, 11, 15, 12, 6, 3, 14, 1 |
      6, 7, 14, 9, 13, 5, 3, 2, 8, 1, 10, 15, 12, 11, 4 |
      12, 15, 8, 6, 14, 13, 10, 9, 5, 4, 1, 11, 7, 3, 2 |
      7, 6, 2, 1, 9, 5, 4, 3, 11, 8, 10, 12, 13, 15, 14 |
      1, 12, 7, 8, 14, 4, 11, 2, 15, 9, 10, 13, 6, 5, 3 |
      11, 2, 3, 10, 1, 15, 9, 5, 14, 6, 7, 13, 4, 8, 12 |
      7, 6, 8, 5, 3, 13, 2, 4, 9, 11, 15, 12, 10, 1, 14 |
      13, 14, 12, 11, 4, 15, 5, 9, 8, 7, 1, 3, 6, 10, 2 |
      1, 5, 9, 3, 11, 13, 14, 10, 2, 6, 15, 8, 4, 7, 12 |
      10, 4, 6, 2, 9, 11, 15, 3, 12, 1, 14, 5, 7, 13, 8 |
      15, 8, 5, 2, 10, 11, 9, 7, 13, 4, 3, 12, 6, 14, 1 |
      6, 14, 7, 8, 5, 12, 10, 1, 4, 3, 2, 15, 11, 9, 13 |
      12, 14, 9, 7, 5, 10, 2, 6, 1, 4, 13, 15, 3, 11, 8 |
      2, 9, 4, 6, 7, 14, 5, 3, 8, 1, 15, 10, 11, 13, 12 |
      15, 4, 14, 1, 3, 9, 12, 11, 2, 10, 8, 7, 5, 6, 13 |
      1, 15, 5, 10, 7, 13, 8, 2, 4, 12, 14, 11, 9, 6, 3 |
      4, 8, 14, 3, 10, 11, 6, 9, 7, 2, 5, 12, 15, 13, 1 |
      2, 7, 9, 4, 14, 3, 15, 12, 11, 10, 1, 5, 6, 13, 8 |
      12, 7, 9, 1, 13, 11, 10, 8, 15, 2, 14, 5, 4, 6, 3 |
      9, 7, 2, 6, 4, 14, 12, 5, 8, 10, 15, 3, 11, 13, 1 |
      2, 3, 8, 10, 11, 6, 13, 12, 15, 14, 1, 4, 5, 7, 9 |];
