n = 10;
m = 10;

d = [| 69, 33, 2, 53, 43, 56, 74, 69, 15, 70 |
     66, 81, 36, 13, 73, 41, 71, 79, 66, 61 |
     26, 75, 63, 73, 34, 78, 90, 94, 41, 93 |
     36, 99, 17, 9, 72, 85, 29, 11, 82, 26 |
     20, 51, 87, 22, 53, 23, 22, 13, 25, 57 |
     49, 19, 89, 86, 15, 53, 20, 89, 13, 5 |
     93, 24, 75, 38, 92, 58, 52, 78, 36, 7 |
     84, 42, 98, 52, 92, 61, 51, 86, 19, 3 |
     22, 25, 22, 52, 41, 85, 5, 99, 49, 73 |
     78, 31, 74, 64, 58, 33, 37, 46, 90, 64 |];

mc = [| 3, 9, 1, 2, 7, 4, 8, 5, 6, 10 |
      2, 10, 7, 1, 9, 5, 3, 4, 6, 8 |
      6, 8, 5, 7, 3, 1, 4, 2, 10, 9 |
      4, 9, 7, 8, 6, 1, 2, 3, 10, 5 |
      10, 5, 9, 2, 7, 4, 8, 1, 6, 3 |
      4, 1, 3, 10, 7, 6, 8, 9, 5, 2 |
      2, 1, 5, 7, 3, 9, 10, 4, 8, 6 |
      5, 10, 7, 6, 4, 2, 1, 8, 3, 9 |
      4, 1, 10, 9, 3, 6, 8, 5, 2, 7 |
      5, 7, 9, 10, 8, 4, 6, 2, 1, 3 |];
