n = 50;
m = 20;

d = [| 80, 56, 89, 7, 2, 81, 65, 3, 5, 4, 43, 94, 88, 49, 84, 18, 13, 56, 58, 54 |
     62, 76, 21, 23, 92, 11, 99, 25, 27, 58, 39, 87, 51, 40, 89, 73, 16, 37, 93, 4 |
     64, 83, 23, 14, 83, 95, 8, 1, 78, 68, 12, 6, 4, 18, 8, 17, 31, 80, 12, 10 |
     36, 37, 27, 49, 26, 46, 20, 16, 19, 88, 63, 8, 81, 54, 81, 51, 97, 62, 44, 3 |
     29, 77, 40, 53, 64, 17, 80, 8, 40, 54, 62, 42, 61, 11, 66, 90, 5, 59, 66, 2 |
     80, 51, 65, 27, 33, 99, 72, 81, 18, 83, 74, 32, 22, 27, 24, 81, 99, 70, 14, 1 |
     5, 92, 48, 18, 10, 77, 30, 21, 58, 30, 28, 32, 58, 99, 80, 11, 17, 56, 42, 12 |
     1, 60, 21, 59, 86, 69, 17, 81, 99, 47, 82, 31, 11, 38, 48, 66, 7, 90, 49, 61 |
     99, 85, 50, 86, 57, 70, 69, 6, 91, 48, 59, 34, 62, 67, 22, 96, 16, 8, 94, 84 |
     78, 46, 89, 14, 23, 47, 19, 23, 86, 40, 16, 82, 87, 48, 34, 41, 88, 47, 66, 7 |
     1, 83, 82, 91, 96, 48, 22, 74, 68, 13, 27, 81, 59, 39, 24, 83, 87, 15, 32, 33 |
     4, 65, 73, 50, 73, 82, 53, 89, 82, 37, 64, 74, 92, 28, 82, 24, 43, 67, 27, 8 |
     12, 48, 11, 49, 48, 42, 75, 97, 33, 33, 82, 73, 58, 53, 8, 56, 15, 93, 46, 20 |
     3, 25, 27, 21, 40, 41, 88, 46, 25, 47, 19, 24, 84, 45, 95, 92, 93, 74, 4, 58 |
     97, 2, 81, 17, 84, 35, 79, 92, 88, 71, 10, 5, 68, 34, 91, 80, 33, 30, 47, 75 |
     44, 91, 78, 51, 92, 11, 18, 30, 32, 11, 51, 5, 74, 87, 53, 48, 45, 67, 48, 78 |
     85, 96, 78, 94, 73, 17, 83, 99, 68, 32, 4, 37, 12, 7, 86, 52, 40, 83, 37, 23 |
     52, 77, 79, 81, 52, 18, 88, 98, 40, 33, 81, 37, 79, 79, 6, 81, 40, 9, 75, 53 |
     3, 1, 28, 98, 3, 14, 97, 24, 45, 73, 82, 63, 59, 16, 24, 95, 43, 6, 56, 45 |
     85, 12, 72, 72, 27, 44, 64, 38, 22, 85, 84, 47, 7, 71, 96, 70, 63, 42, 60, 6 |
     48, 5, 88, 59, 44, 85, 24, 46, 25, 73, 16, 99, 19, 17, 6, 89, 88, 61, 97, 47 |
     81, 65, 52, 86, 37, 70, 59, 15, 65, 43, 23, 39, 50, 87, 53, 40, 2, 99, 67, 86 |
     8, 35, 35, 47, 9, 52, 28, 15, 62, 59, 71, 99, 63, 72, 80, 8, 46, 93, 45, 4 |
     37, 21, 89, 83, 75, 43, 73, 99, 7, 48, 69, 14, 39, 77, 38, 12, 86, 58, 40, 3 |
     36, 6, 82, 50, 95, 58, 62, 12, 58, 10, 11, 73, 96, 34, 27, 34, 42, 98, 8, 95 |
     99, 67, 28, 15, 57, 79, 24, 11, 78, 94, 87, 43, 65, 95, 35, 84, 84, 79, 95, 57 |
     72, 38, 89, 52, 65, 83, 24, 8, 57, 22, 13, 37, 35, 70, 32, 54, 81, 22, 97, 69 |
     18, 80, 42, 59, 20, 11, 84, 41, 31, 3, 38, 98, 70, 56, 51, 85, 10, 86, 75, 63 |
     15, 19, 18, 46, 40, 4, 2, 84, 83, 3, 26, 76, 48, 53, 24, 78, 1, 68, 21, 77 |
     16, 91, 5, 5, 97, 2, 32, 24, 6, 61, 17, 57, 52, 44, 23, 12, 5, 1, 85, 53 |
     20, 41, 83, 31, 68, 72, 96, 94, 34, 44, 88, 80, 35, 10, 84, 23, 2, 35, 27, 55 |
     99, 57, 97, 19, 54, 57, 53, 11, 90, 54, 25, 70, 12, 91, 91, 70, 1, 16, 41, 86 |
     19, 21, 67, 79, 88, 4, 88, 24, 35, 6, 41, 87, 59, 9, 77, 1, 24, 81, 64, 38 |
     17, 5, 24, 49, 43, 83, 68, 57, 43, 94, 65, 5, 13, 81, 90, 9, 24, 79, 63, 7 |
     83, 58, 28, 83, 31, 75, 92, 27, 5, 32, 54, 52, 54, 89, 37, 7, 56, 4, 65, 11 |
     44, 44, 87, 50, 77, 28, 1, 80, 36, 51, 90, 59, 51, 40, 91, 65, 41, 75, 26, 72 |
     13, 17, 62, 48, 25, 87, 72, 35, 89, 36, 34, 35, 84, 38, 8, 80, 13, 46, 5, 24 |
     45, 49, 82, 93, 85, 68, 14, 83, 85, 29, 96, 26, 13, 38, 73, 76, 42, 19, 13, 40 |
     39, 78, 72, 36, 66, 94, 49, 6, 50, 26, 50, 45, 39, 2, 15, 74, 52, 47, 24, 99 |
     26, 55, 1, 55, 49, 62, 71, 49, 43, 15, 9, 60, 15, 10, 65, 17, 1, 38, 40, 42 |
     98, 37, 70, 57, 83, 54, 98, 13, 5, 20, 68, 11, 82, 44, 71, 65, 89, 29, 45, 85 |
     31, 94, 35, 98, 8, 56, 13, 84, 20, 66, 57, 25, 65, 3, 37, 76, 80, 56, 71, 62 |
     34, 67, 34, 95, 77, 98, 9, 10, 69, 98, 15, 40, 23, 89, 42, 37, 60, 41, 87, 76 |
     86, 38, 3, 83, 50, 57, 85, 11, 62, 86, 59, 33, 11, 33, 98, 66, 62, 74, 1, 63 |
     69, 32, 51, 44, 20, 62, 53, 62, 76, 64, 3, 81, 96, 8, 51, 19, 23, 91, 71, 76 |
     11, 59, 90, 24, 59, 43, 62, 39, 45, 25, 96, 17, 93, 53, 96, 61, 45, 97, 12, 43 |
     50, 96, 62, 77, 57, 23, 91, 97, 43, 36, 96, 54, 1, 55, 49, 29, 17, 28, 56, 37 |
     86, 50, 5, 65, 59, 32, 80, 13, 94, 18, 36, 51, 93, 21, 98, 14, 48, 92, 79, 7 |
     2, 82, 83, 22, 40, 19, 27, 46, 31, 9, 1, 21, 25, 34, 79, 70, 78, 88, 71, 64 |
     91, 36, 6, 37, 98, 94, 63, 9, 75, 20, 23, 3, 56, 99, 79, 52, 8, 83, 99, 22 |];

mc = [| 8, 17, 2, 16, 3, 14, 13, 19, 9, 10, 15, 18, 11, 20, 6, 1, 12, 5, 4, 7 |
      14, 20, 7, 12, 4, 5, 1, 8, 16, 15, 3, 6, 19, 17, 9, 18, 11, 13, 10, 2 |
      5, 12, 17, 16, 18, 11, 19, 3, 6, 8, 15, 2, 13, 14, 10, 9, 20, 1, 7, 4 |
      13, 14, 8, 16, 4, 9, 3, 6, 15, 1, 12, 2, 11, 17, 7, 5, 20, 19, 10, 18 |
      9, 13, 8, 6, 3, 2, 1, 17, 7, 11, 4, 19, 15, 14, 18, 16, 5, 20, 10, 12 |
      6, 20, 3, 5, 16, 8, 7, 10, 14, 1, 11, 15, 17, 9, 12, 4, 18, 19, 13, 2 |
      19, 13, 9, 17, 1, 20, 18, 2, 16, 7, 4, 8, 11, 3, 15, 10, 5, 12, 14, 6 |
      20, 10, 12, 5, 6, 18, 9, 1, 16, 7, 14, 3, 11, 15, 19, 8, 2, 4, 17, 13 |
      11, 1, 5, 18, 6, 8, 2, 19, 14, 9, 20, 4, 16, 13, 3, 15, 12, 7, 17, 10 |
      9, 17, 3, 1, 5, 20, 4, 6, 13, 2, 7, 11, 16, 8, 15, 14, 12, 19, 18, 10 |
      13, 2, 9, 5, 7, 14, 8, 16, 4, 3, 1, 17, 15, 18, 12, 10, 6, 19, 11, 20 |
      1, 10, 3, 19, 4, 14, 15, 2, 9, 6, 7, 16, 8, 5, 20, 18, 17, 11, 13, 12 |
      14, 4, 1, 15, 11, 18, 20, 13, 17, 8, 3, 12, 16, 2, 6, 19, 7, 9, 10, 5 |
      1, 11, 2, 9, 8, 16, 3, 15, 4, 13, 7, 18, 19, 14, 10, 17, 5, 12, 20, 6 |
      20, 1, 15, 18, 7, 14, 17, 16, 9, 12, 6, 10, 5, 8, 2, 13, 3, 4, 19, 11 |
      4, 13, 1, 19, 15, 2, 11, 10, 20, 5, 3, 8, 17, 18, 14, 6, 7, 9, 16, 12 |
      1, 14, 12, 18, 10, 15, 2, 4, 8, 7, 16, 3, 6, 13, 17, 20, 11, 5, 19, 9 |
      1, 12, 19, 5, 3, 9, 20, 17, 7, 14, 18, 13, 4, 8, 15, 6, 11, 2, 16, 10 |
      7, 11, 15, 14, 2, 12, 10, 9, 20, 17, 4, 8, 1, 16, 18, 13, 5, 19, 6, 3 |
      17, 18, 1, 19, 4, 6, 12, 16, 8, 7, 9, 11, 14, 5, 15, 2, 3, 10, 20, 13 |
      19, 20, 7, 14, 17, 15, 1, 13, 10, 4, 2, 16, 5, 8, 18, 12, 6, 9, 3, 11 |
      7, 14, 15, 6, 9, 16, 20, 2, 3, 12, 17, 5, 10, 11, 4, 19, 8, 13, 1, 18 |
      5, 6, 19, 11, 16, 7, 10, 4, 20, 13, 2, 17, 9, 3, 1, 18, 12, 15, 14, 8 |
      3, 6, 5, 8, 20, 16, 1, 13, 11, 12, 10, 14, 2, 9, 19, 17, 15, 18, 4, 7 |
      11, 14, 1, 13, 20, 18, 3, 15, 16, 9, 5, 8, 17, 12, 19, 7, 2, 10, 4, 6 |
      9, 17, 20, 15, 11, 1, 2, 6, 18, 4, 19, 7, 8, 10, 16, 14, 13, 12, 3, 5 |
      13, 5, 3, 8, 19, 20, 15, 11, 7, 14, 17, 12, 10, 1, 2, 16, 18, 9, 4, 6 |
      4, 11, 13, 17, 19, 1, 5, 12, 6, 9, 8, 7, 10, 15, 18, 20, 16, 14, 3, 2 |
      15, 5, 10, 17, 2, 12, 1, 6, 20, 18, 9, 4, 11, 8, 19, 13, 3, 14, 7, 16 |
      10, 2, 17, 5, 20, 14, 4, 18, 11, 8, 1, 13, 6, 19, 12, 3, 9, 15, 7, 16 |
      7, 1, 18, 20, 12, 5, 11, 6, 4, 9, 16, 19, 2, 17, 15, 14, 3, 13, 8, 10 |
      5, 16, 2, 8, 14, 12, 3, 4, 18, 20, 10, 6, 19, 13, 17, 11, 7, 1, 9, 15 |
      20, 4, 7, 16, 11, 12, 3, 8, 9, 1, 6, 14, 18, 17, 13, 2, 15, 10, 5, 19 |
      9, 20, 15, 16, 1, 4, 18, 17, 13, 19, 7, 5, 11, 2, 10, 3, 6, 12, 8, 14 |
      12, 4, 5, 16, 14, 15, 8, 17, 19, 18, 11, 20, 6, 2, 10, 7, 9, 1, 13, 3 |
      19, 3, 9, 6, 7, 13, 10, 2, 5, 15, 11, 18, 16, 20, 4, 12, 14, 8, 1, 17 |
      3, 5, 2, 9, 19, 16, 17, 14, 20, 7, 18, 12, 10, 13, 8, 4, 11, 6, 15, 1 |
      9, 10, 16, 11, 8, 17, 14, 3, 6, 15, 1, 20, 4, 7, 19, 13, 12, 2, 5, 18 |
      17, 8, 13, 5, 1, 12, 20, 7, 14, 2, 16, 4, 6, 9, 15, 3, 18, 11, 19, 10 |
      6, 10, 9, 1, 3, 16, 11, 8, 17, 2, 14, 19, 20, 13, 4, 12, 18, 5, 7, 15 |
      16, 9, 3, 13, 14, 5, 20, 1, 11, 10, 12, 6, 15, 2, 18, 19, 7, 4, 17, 8 |
      19, 8, 15, 3, 18, 11, 1, 9, 14, 7, 2, 10, 16, 4, 5, 20, 6, 13, 17, 12 |
      8, 20, 11, 3, 6, 17, 13, 14, 16, 5, 2, 4, 10, 9, 15, 18, 19, 1, 12, 7 |
      18, 6, 12, 10, 16, 2, 13, 5, 4, 11, 14, 19, 20, 8, 7, 3, 17, 1, 15, 9 |
      7, 16, 12, 9, 14, 2, 3, 17, 11, 4, 13, 1, 19, 5, 20, 15, 8, 10, 6, 18 |
      20, 16, 11, 1, 13, 4, 7, 2, 6, 10, 9, 14, 19, 12, 3, 17, 18, 5, 8, 15 |
      12, 5, 17, 9, 10, 13, 7, 3, 6, 1, 11, 8, 14, 18, 19, 15, 2, 16, 20, 4 |
      15, 4, 11, 12, 7, 20, 2, 9, 1, 13, 18, 8, 6, 17, 3, 5, 14, 19, 10, 16 |
      12, 7, 6, 17, 9, 20, 1, 15, 18, 14, 16, 5, 11, 2, 8, 10, 19, 4, 13, 3 |
      3, 1, 17, 2, 5, 15, 13, 14, 9, 10, 20, 7, 8, 4, 16, 18, 19, 11, 12, 6 |];
