n = 100;
m = 20;

d = [| 93, 77, 46, 4, 23, 60, 7, 76, 93, 51, 33, 12, 37, 58, 9, 75, 48, 92, 5, 19 |
     77, 40, 87, 26, 35, 83, 61, 85, 63, 29, 47, 64, 86, 57, 74, 76, 11, 68, 97, 19 |
     37, 63, 21, 38, 81, 30, 1, 5, 83, 52, 66, 12, 93, 5, 23, 71, 49, 19, 97, 18 |
     51, 62, 6, 94, 26, 87, 74, 39, 7, 90, 37, 13, 82, 96, 34, 1, 44, 45, 80, 11 |
     35, 59, 81, 43, 87, 83, 26, 20, 87, 51, 16, 82, 68, 70, 52, 35, 35, 29, 68, 64 |
     18, 98, 64, 43, 14, 35, 6, 37, 57, 87, 1, 20, 39, 30, 10, 95, 51, 88, 52, 64 |
     19, 21, 51, 60, 78, 58, 17, 14, 86, 40, 45, 22, 96, 79, 33, 41, 29, 95, 36, 93 |
     49, 52, 21, 98, 81, 96, 44, 94, 83, 93, 97, 15, 48, 95, 88, 88, 27, 98, 32, 47 |
     69, 75, 20, 22, 97, 16, 17, 14, 23, 63, 71, 65, 86, 29, 90, 40, 20, 97, 18, 46 |
     49, 31, 70, 74, 43, 63, 33, 56, 70, 74, 21, 46, 72, 7, 33, 2, 14, 24, 21, 29 |
     44, 42, 1, 3, 91, 90, 18, 46, 45, 25, 89, 62, 40, 58, 49, 74, 4, 62, 57, 53 |
     39, 96, 93, 49, 68, 18, 70, 4, 68, 78, 92, 76, 89, 85, 37, 62, 35, 14, 21, 32 |
     42, 34, 6, 72, 91, 72, 15, 20, 17, 78, 95, 15, 58, 56, 48, 26, 82, 85, 67, 68 |
     40, 38, 25, 4, 43, 25, 84, 34, 64, 30, 61, 86, 98, 8, 64, 46, 80, 29, 46, 53 |
     11, 14, 6, 34, 6, 61, 29, 28, 23, 83, 39, 63, 65, 52, 81, 27, 78, 56, 23, 74 |
     20, 29, 98, 92, 1, 23, 9, 43, 54, 20, 63, 46, 54, 98, 95, 38, 67, 4, 67, 89 |
     76, 93, 15, 50, 80, 16, 31, 82, 42, 32, 11, 12, 55, 83, 34, 70, 67, 56, 29, 47 |
     58, 4, 48, 15, 38, 56, 78, 95, 56, 30, 84, 38, 12, 18, 54, 52, 51, 11, 33, 53 |
     90, 3, 95, 62, 2, 45, 48, 6, 74, 50, 72, 29, 70, 18, 72, 22, 65, 89, 7, 4 |
     72, 89, 89, 52, 55, 8, 43, 36, 1, 81, 24, 79, 43, 18, 61, 13, 88, 9, 64, 44 |
     58, 61, 40, 85, 48, 34, 66, 3, 60, 56, 70, 43, 95, 51, 28, 18, 40, 41, 86, 81 |
     85, 17, 80, 64, 78, 17, 4, 9, 60, 93, 5, 3, 51, 26, 26, 70, 71, 28, 96, 87 |
     24, 67, 55, 63, 48, 77, 25, 82, 46, 32, 44, 34, 32, 4, 2, 90, 86, 9, 5, 55 |
     19, 90, 74, 21, 83, 19, 60, 54, 43, 90, 33, 6, 87, 53, 49, 82, 66, 84, 45, 70 |
     97, 68, 98, 67, 74, 52, 12, 67, 43, 45, 77, 90, 69, 17, 67, 6, 29, 63, 65, 74 |
     93, 15, 17, 69, 92, 98, 39, 55, 46, 73, 91, 46, 53, 85, 95, 8, 42, 42, 27, 36 |
     76, 77, 67, 72, 12, 6, 46, 90, 65, 32, 57, 38, 12, 27, 57, 94, 54, 87, 5, 16 |
     82, 89, 78, 97, 3, 98, 10, 33, 56, 42, 3, 62, 48, 55, 7, 59, 9, 32, 20, 22 |
     24, 98, 52, 27, 16, 88, 47, 22, 95, 5, 32, 84, 35, 71, 82, 47, 38, 78, 46, 88 |
     57, 28, 60, 13, 30, 63, 63, 64, 36, 57, 37, 67, 87, 3, 29, 31, 12, 2, 15, 25 |
     80, 12, 77, 2, 4, 14, 68, 15, 66, 73, 55, 37, 77, 23, 15, 52, 60, 37, 93, 69 |
     15, 20, 42, 33, 30, 12, 99, 10, 50, 68, 87, 73, 64, 1, 53, 37, 81, 17, 98, 66 |
     92, 34, 17, 22, 61, 78, 80, 93, 26, 5, 27, 3, 55, 46, 96, 87, 86, 70, 94, 14 |
     79, 3, 87, 84, 75, 2, 87, 6, 85, 92, 4, 92, 97, 11, 68, 13, 96, 15, 68, 13 |
     13, 46, 64, 12, 81, 99, 27, 22, 52, 55, 19, 68, 19, 24, 59, 12, 51, 83, 21, 20 |
     34, 13, 68, 92, 3, 25, 92, 58, 21, 53, 96, 48, 92, 24, 22, 53, 80, 73, 19, 12 |
     62, 98, 49, 91, 20, 43, 39, 60, 23, 76, 61, 90, 29, 93, 44, 48, 31, 29, 59, 15 |
     44, 23, 39, 15, 95, 4, 98, 80, 34, 98, 37, 62, 57, 13, 69, 87, 15, 81, 29, 92 |
     76, 65, 1, 18, 32, 92, 45, 60, 64, 40, 84, 89, 99, 59, 60, 7, 15, 3, 19, 44 |
     34, 16, 4, 4, 30, 5, 64, 63, 67, 50, 3, 39, 49, 3, 71, 5, 88, 58, 1, 21 |
     73, 26, 68, 14, 73, 53, 93, 52, 34, 40, 94, 98, 33, 75, 97, 6, 84, 91, 44, 27 |
     60, 92, 68, 30, 33, 25, 24, 42, 59, 7, 77, 71, 84, 66, 55, 99, 18, 18, 84, 37 |
     24, 4, 52, 86, 19, 79, 7, 58, 13, 12, 80, 29, 22, 86, 73, 78, 67, 4, 73, 66 |
     7, 53, 77, 49, 99, 13, 38, 64, 41, 91, 71, 67, 15, 89, 7, 56, 91, 85, 34, 9 |
     29, 1, 78, 49, 68, 3, 7, 17, 37, 7, 80, 54, 72, 77, 8, 17, 23, 77, 94, 12 |
     55, 66, 55, 30, 28, 81, 59, 96, 98, 62, 66, 78, 81, 95, 28, 89, 9, 51, 70, 90 |
     94, 84, 18, 74, 86, 85, 70, 83, 70, 20, 34, 23, 51, 95, 7, 56, 92, 89, 83, 36 |
     38, 15, 35, 17, 34, 1, 83, 98, 72, 41, 60, 37, 41, 46, 25, 68, 27, 28, 46, 41 |
     22, 85, 63, 72, 22, 8, 21, 41, 93, 47, 49, 71, 32, 54, 2, 37, 98, 62, 29, 70 |
     55, 31, 6, 11, 58, 9, 95, 67, 55, 65, 48, 90, 56, 1, 93, 1, 98, 62, 63, 24 |
     98, 10, 97, 10, 21, 50, 64, 58, 36, 42, 77, 22, 57, 10, 25, 27, 25, 70, 58, 97 |
     71, 40, 93, 25, 37, 25, 83, 3, 29, 25, 6, 6, 69, 50, 74, 77, 14, 28, 88, 7 |
     58, 55, 56, 55, 51, 94, 70, 76, 32, 43, 40, 47, 93, 58, 69, 78, 53, 2, 18, 48 |
     77, 78, 34, 42, 25, 33, 27, 40, 43, 22, 16, 1, 38, 57, 87, 50, 68, 2, 38, 69 |
     55, 28, 85, 37, 82, 58, 64, 62, 6, 29, 67, 56, 48, 24, 43, 58, 55, 42, 54, 15 |
     2, 23, 62, 59, 40, 56, 81, 1, 20, 28, 64, 24, 61, 8, 94, 95, 87, 21, 35, 6 |
     62, 63, 16, 80, 33, 83, 97, 74, 15, 27, 2, 11, 23, 90, 34, 46, 76, 10, 66, 94 |
     84, 53, 45, 65, 43, 13, 23, 71, 5, 53, 29, 26, 82, 90, 78, 9, 84, 77, 4, 37 |
     56, 44, 62, 82, 73, 78, 13, 78, 1, 67, 47, 86, 47, 94, 53, 5, 51, 13, 3, 99 |
     54, 26, 33, 73, 48, 71, 32, 52, 82, 86, 67, 96, 88, 56, 71, 74, 46, 86, 67, 12 |
     89, 31, 13, 64, 9, 45, 4, 33, 91, 92, 64, 37, 89, 45, 67, 20, 98, 75, 35, 81 |
     11, 49, 75, 31, 35, 94, 56, 53, 23, 59, 54, 39, 16, 61, 20, 48, 44, 96, 22, 82 |
     34, 3, 77, 35, 10, 67, 30, 40, 49, 98, 92, 5, 33, 77, 32, 61, 96, 74, 19, 18 |
     99, 99, 6, 1, 5, 52, 92, 84, 76, 17, 58, 72, 40, 25, 10, 1, 18, 87, 99, 38 |
     36, 2, 40, 77, 47, 53, 99, 53, 19, 88, 1, 22, 87, 89, 55, 18, 95, 78, 65, 55 |
     54, 9, 20, 14, 42, 24, 42, 69, 84, 77, 98, 6, 78, 1, 66, 14, 99, 48, 6, 15 |
     57, 43, 39, 13, 77, 17, 88, 14, 23, 30, 77, 96, 40, 33, 33, 3, 36, 1, 20, 71 |
     5, 81, 1, 92, 62, 30, 7, 33, 89, 32, 47, 59, 66, 76, 22, 88, 4, 35, 40, 8 |
     17, 6, 70, 75, 7, 67, 10, 81, 91, 2, 33, 51, 54, 60, 63, 18, 71, 86, 17, 41 |
     21, 51, 4, 88, 58, 30, 24, 63, 75, 89, 55, 59, 93, 38, 76, 34, 82, 42, 87, 91 |
     52, 74, 85, 5, 55, 48, 70, 63, 78, 76, 17, 97, 45, 35, 79, 96, 72, 57, 30, 51 |
     77, 88, 31, 95, 8, 53, 10, 33, 86, 34, 9, 24, 11, 67, 66, 82, 54, 16, 32, 62 |
     51, 62, 48, 6, 10, 63, 69, 18, 61, 16, 76, 93, 11, 87, 41, 37, 24, 60, 32, 46 |
     95, 5, 35, 97, 29, 90, 47, 49, 89, 83, 5, 71, 68, 70, 56, 34, 78, 95, 32, 3 |
     86, 99, 91, 98, 45, 42, 80, 30, 13, 60, 30, 22, 69, 58, 75, 63, 5, 22, 7, 1 |
     11, 14, 25, 15, 52, 35, 46, 52, 25, 19, 75, 2, 45, 36, 37, 8, 74, 83, 67, 42 |
     84, 3, 26, 58, 90, 12, 17, 25, 15, 13, 24, 81, 85, 10, 91, 94, 21, 42, 34, 45 |
     58, 59, 95, 90, 26, 97, 68, 7, 77, 26, 15, 91, 37, 58, 86, 41, 99, 64, 77, 50 |
     91, 18, 97, 87, 38, 27, 35, 52, 72, 77, 61, 55, 43, 63, 90, 82, 53, 45, 10, 22 |
     83, 74, 45, 92, 18, 82, 14, 7, 26, 52, 43, 43, 32, 85, 99, 33, 68, 1, 52, 91 |
     78, 59, 26, 35, 76, 4, 58, 46, 58, 67, 76, 79, 7, 41, 97, 94, 36, 2, 76, 23 |
     65, 44, 5, 2, 2, 24, 32, 12, 23, 45, 22, 36, 53, 95, 64, 30, 29, 13, 54, 39 |
     83, 96, 62, 73, 63, 31, 8, 57, 71, 4, 96, 36, 32, 42, 48, 91, 25, 48, 22, 12 |
     80, 61, 50, 39, 9, 44, 47, 9, 15, 16, 44, 29, 20, 21, 13, 18, 14, 28, 78, 38 |
     46, 6, 93, 75, 93, 64, 65, 23, 74, 37, 61, 95, 92, 22, 50, 43, 74, 82, 68, 15 |
     6, 52, 3, 75, 62, 96, 51, 14, 66, 86, 37, 42, 73, 77, 55, 13, 28, 35, 65, 38 |
     24, 72, 5, 88, 76, 82, 9, 45, 59, 3, 77, 79, 80, 1, 62, 12, 51, 99, 97, 28 |
     11, 82, 52, 37, 33, 23, 34, 52, 3, 84, 76, 14, 23, 94, 58, 87, 91, 91, 41, 10 |
     11, 4, 7, 77, 79, 5, 69, 32, 69, 91, 56, 90, 87, 50, 91, 16, 62, 7, 71, 14 |
     6, 6, 22, 90, 17, 98, 46, 48, 52, 3, 26, 22, 44, 71, 91, 37, 17, 39, 42, 75 |
     8, 46, 3, 33, 41, 10, 65, 98, 73, 59, 97, 52, 18, 35, 55, 76, 19, 38, 98, 53 |
     70, 54, 71, 81, 32, 39, 49, 27, 88, 16, 6, 46, 99, 61, 64, 96, 84, 88, 47, 95 |
     37, 61, 30, 60, 48, 92, 98, 14, 79, 9, 58, 88, 49, 24, 67, 60, 7, 94, 13, 12 |
     33, 10, 66, 20, 97, 37, 76, 35, 15, 36, 48, 66, 75, 63, 73, 27, 52, 94, 15, 10 |
     26, 75, 61, 11, 90, 61, 95, 95, 72, 63, 44, 3, 47, 62, 21, 74, 65, 34, 74, 19 |
     80, 17, 49, 99, 41, 92, 69, 23, 31, 17, 12, 49, 92, 78, 45, 78, 13, 72, 74, 74 |
     84, 63, 67, 86, 33, 72, 81, 57, 98, 70, 85, 10, 21, 45, 59, 57, 71, 57, 87, 28 |
     84, 58, 72, 69, 17, 51, 90, 75, 40, 40, 41, 40, 20, 27, 48, 19, 37, 5, 3, 44 |
     27, 42, 20, 81, 24, 87, 14, 75, 14, 44, 70, 20, 57, 91, 76, 27, 68, 59, 36, 55 |
     79, 71, 31, 74, 83, 88, 64, 7, 15, 81, 90, 32, 50, 22, 4, 65, 70, 91, 15, 66 |];

mc = [| 9, 13, 1, 6, 8, 5, 12, 7, 10, 18, 3, 17, 20, 4, 19, 16, 14, 15, 11, 2 |
      1, 20, 8, 11, 7, 18, 16, 17, 6, 14, 15, 9, 4, 10, 3, 5, 12, 13, 2, 19 |
      1, 11, 19, 9, 10, 5, 12, 17, 18, 6, 13, 4, 2, 8, 15, 14, 3, 16, 7, 20 |
      11, 9, 8, 18, 10, 7, 4, 20, 6, 5, 19, 17, 3, 12, 15, 14, 2, 16, 13, 1 |
      14, 11, 19, 1, 2, 9, 20, 18, 4, 17, 6, 16, 12, 15, 13, 8, 7, 3, 10, 5 |
      6, 13, 20, 7, 18, 16, 3, 11, 17, 4, 1, 15, 12, 8, 14, 5, 9, 19, 2, 10 |
      12, 7, 5, 17, 4, 11, 3, 8, 15, 20, 19, 1, 13, 6, 18, 2, 10, 14, 16, 9 |
      20, 1, 8, 15, 5, 4, 7, 10, 19, 2, 18, 14, 13, 17, 9, 16, 6, 3, 12, 11 |
      5, 10, 1, 4, 15, 19, 16, 9, 6, 18, 14, 13, 17, 2, 8, 20, 12, 7, 3, 11 |
      17, 16, 1, 13, 18, 15, 6, 14, 8, 4, 11, 2, 12, 9, 5, 3, 19, 20, 10, 7 |
      4, 10, 7, 13, 19, 6, 2, 15, 20, 12, 9, 1, 8, 18, 5, 14, 3, 16, 11, 17 |
      3, 17, 15, 5, 2, 13, 7, 9, 20, 4, 1, 19, 11, 8, 16, 10, 14, 6, 18, 12 |
      20, 7, 6, 14, 3, 17, 18, 9, 10, 15, 19, 8, 16, 12, 5, 1, 13, 4, 2, 11 |
      17, 6, 12, 5, 9, 8, 14, 11, 18, 2, 3, 4, 7, 1, 13, 16, 20, 19, 10, 15 |
      9, 15, 1, 11, 18, 20, 10, 14, 12, 2, 17, 4, 6, 16, 5, 19, 3, 13, 7, 8 |
      12, 4, 15, 16, 3, 13, 8, 19, 1, 2, 17, 10, 9, 11, 5, 20, 6, 18, 7, 14 |
      2, 12, 5, 13, 11, 9, 3, 19, 4, 17, 6, 18, 1, 8, 20, 7, 14, 15, 16, 10 |
      3, 17, 13, 18, 6, 20, 19, 10, 12, 7, 9, 4, 16, 8, 1, 2, 15, 14, 5, 11 |
      2, 11, 4, 5, 19, 10, 16, 18, 1, 3, 6, 12, 14, 7, 9, 8, 13, 20, 15, 17 |
      10, 2, 3, 12, 19, 1, 13, 15, 16, 8, 11, 14, 17, 9, 20, 18, 7, 4, 6, 5 |
      15, 13, 18, 12, 10, 19, 6, 9, 17, 7, 16, 1, 3, 5, 14, 4, 11, 20, 8, 2 |
      1, 12, 10, 7, 9, 4, 18, 13, 5, 3, 2, 11, 19, 20, 6, 14, 16, 8, 17, 15 |
      14, 5, 13, 1, 15, 3, 4, 8, 6, 10, 11, 12, 16, 2, 7, 20, 18, 19, 9, 17 |
      5, 4, 10, 3, 19, 11, 20, 14, 6, 1, 18, 12, 7, 16, 17, 13, 8, 9, 15, 2 |
      14, 15, 17, 16, 2, 4, 3, 8, 13, 12, 20, 6, 11, 19, 7, 5, 9, 18, 1, 10 |
      20, 4, 15, 1, 10, 5, 2, 13, 8, 3, 6, 11, 17, 19, 9, 18, 7, 12, 16, 14 |
      2, 15, 6, 17, 20, 18, 8, 14, 7, 16, 10, 12, 1, 13, 5, 4, 19, 11, 3, 9 |
      13, 19, 20, 16, 1, 5, 4, 3, 10, 14, 15, 17, 12, 9, 8, 18, 6, 2, 7, 11 |
      4, 7, 14, 19, 13, 1, 20, 5, 8, 17, 3, 16, 6, 10, 2, 11, 18, 9, 12, 15 |
      5, 4, 6, 7, 15, 3, 11, 13, 14, 1, 9, 17, 2, 12, 8, 18, 16, 10, 20, 19 |
      17, 7, 1, 20, 2, 14, 10, 18, 9, 8, 3, 19, 5, 15, 4, 6, 13, 12, 11, 16 |
      10, 19, 3, 12, 11, 4, 7, 13, 8, 18, 17, 5, 15, 16, 14, 20, 6, 1, 2, 9 |
      19, 14, 4, 11, 3, 9, 15, 18, 2, 20, 13, 6, 8, 7, 1, 10, 12, 16, 5, 17 |
      11, 13, 1, 7, 10, 19, 3, 9, 4, 2, 18, 8, 5, 16, 6, 20, 12, 17, 14, 15 |
      15, 8, 11, 18, 16, 1, 4, 6, 19, 7, 3, 20, 2, 5, 17, 13, 9, 10, 14, 12 |
      19, 11, 8, 14, 5, 1, 18, 13, 6, 12, 15, 3, 4, 9, 16, 20, 10, 2, 17, 7 |
      16, 7, 3, 10, 12, 11, 8, 1, 6, 18, 15, 19, 20, 5, 2, 13, 4, 14, 17, 9 |
      3, 13, 9, 18, 12, 5, 15, 4, 14, 2, 11, 10, 17, 6, 19, 16, 1, 7, 20, 8 |
      4, 12, 7, 20, 18, 6, 13, 16, 1, 11, 17, 14, 19, 9, 2, 3, 8, 10, 15, 5 |
      2, 11, 13, 7, 16, 8, 3, 18, 6, 19, 4, 20, 17, 1, 12, 9, 14, 10, 15, 5 |
      13, 14, 1, 15, 3, 5, 9, 2, 7, 16, 20, 12, 18, 19, 17, 4, 10, 8, 6, 11 |
      15, 16, 13, 14, 1, 18, 8, 5, 20, 17, 12, 10, 7, 3, 2, 11, 4, 9, 6, 19 |
      6, 1, 3, 9, 17, 4, 7, 2, 10, 19, 13, 18, 8, 15, 12, 11, 5, 20, 14, 16 |
      7, 1, 12, 6, 15, 2, 14, 3, 17, 10, 9, 4, 13, 8, 11, 16, 18, 19, 20, 5 |
      11, 4, 5, 13, 12, 17, 20, 18, 6, 15, 1, 7, 2, 14, 19, 9, 16, 3, 8, 10 |
      13, 14, 8, 17, 6, 16, 5, 9, 3, 15, 12, 2, 20, 1, 11, 4, 10, 7, 18, 19 |
      2, 12, 15, 3, 6, 5, 18, 13, 20, 9, 7, 8, 1, 16, 11, 19, 10, 17, 4, 14 |
      2, 14, 15, 20, 16, 12, 1, 19, 10, 13, 7, 6, 9, 5, 18, 4, 17, 8, 11, 3 |
      7, 1, 8, 12, 4, 3, 10, 18, 16, 14, 9, 11, 13, 6, 5, 17, 15, 20, 19, 2 |
      19, 7, 4, 8, 6, 2, 13, 15, 11, 5, 9, 16, 10, 3, 12, 20, 14, 18, 17, 1 |
      6, 17, 7, 9, 20, 8, 1, 15, 19, 12, 5, 16, 4, 14, 2, 18, 3, 13, 10, 11 |
      15, 18, 7, 2, 9, 3, 19, 1, 17, 14, 16, 10, 5, 11, 4, 20, 13, 12, 8, 6 |
      17, 14, 4, 10, 16, 5, 13, 1, 18, 8, 11, 9, 2, 6, 7, 15, 19, 3, 20, 12 |
      5, 13, 8, 1, 15, 4, 14, 16, 10, 19, 6, 7, 17, 2, 18, 20, 11, 3, 12, 9 |
      4, 5, 17, 18, 11, 7, 16, 12, 13, 2, 20, 10, 14, 8, 3, 9, 19, 15, 6, 1 |
      19, 13, 10, 6, 18, 3, 9, 2, 5, 15, 11, 1, 12, 14, 8, 20, 4, 16, 17, 7 |
      8, 11, 17, 18, 20, 16, 13, 10, 1, 4, 14, 12, 19, 6, 2, 7, 3, 15, 9, 5 |
      5, 12, 4, 20, 13, 19, 7, 11, 15, 9, 8, 14, 6, 3, 1, 16, 10, 17, 18, 2 |
      19, 2, 11, 13, 18, 8, 14, 6, 4, 5, 15, 20, 7, 9, 1, 16, 12, 10, 17, 3 |
      12, 1, 10, 9, 6, 8, 16, 2, 20, 17, 14, 19, 15, 13, 5, 18, 3, 11, 7, 4 |
      2, 12, 6, 10, 19, 8, 15, 3, 20, 11, 13, 4, 17, 7, 1, 16, 5, 14, 9, 18 |
      2, 1, 12, 18, 8, 20, 14, 6, 4, 11, 13, 10, 9, 3, 7, 15, 17, 16, 5, 19 |
      10, 17, 19, 11, 16, 14, 2, 6, 3, 4, 1, 18, 7, 9, 15, 13, 5, 12, 8, 20 |
      2, 3, 13, 11, 1, 14, 18, 9, 4, 5, 12, 16, 17, 10, 7, 19, 8, 15, 20, 6 |
      9, 1, 10, 3, 6, 15, 12, 8, 13, 2, 16, 14, 7, 17, 19, 18, 5, 11, 20, 4 |
      12, 4, 11, 19, 20, 1, 8, 7, 14, 16, 5, 2, 9, 6, 10, 18, 15, 13, 3, 17 |
      19, 7, 3, 12, 8, 20, 6, 10, 9, 1, 14, 11, 17, 4, 15, 16, 5, 2, 18, 13 |
      17, 6, 11, 16, 4, 14, 10, 12, 13, 2, 18, 20, 15, 9, 19, 7, 3, 8, 1, 5 |
      8, 4, 20, 9, 19, 6, 15, 5, 2, 13, 18, 3, 16, 1, 14, 7, 11, 10, 17, 12 |
      11, 9, 18, 16, 6, 19, 17, 15, 8, 3, 4, 20, 2, 5, 14, 10, 7, 13, 1, 12 |
      12, 5, 15, 20, 3, 13, 8, 19, 6, 16, 10, 9, 18, 14, 1, 11, 2, 7, 4, 17 |
      19, 4, 9, 18, 7, 16, 17, 15, 3, 8, 12, 13, 2, 10, 5, 14, 1, 20, 6, 11 |
      6, 10, 9, 15, 16, 11, 8, 17, 7, 13, 5, 1, 14, 12, 18, 3, 2, 19, 20, 4 |
      4, 18, 1, 2, 19, 8, 5, 15, 10, 17, 13, 3, 6, 11, 20, 12, 16, 7, 9, 14 |
      12, 4, 16, 2, 7, 19, 9, 6, 8, 13, 15, 14, 20, 18, 1, 10, 3, 11, 5, 17 |
      17, 16, 20, 18, 1, 15, 12, 5, 19, 11, 6, 3, 14, 4, 10, 9, 7, 8, 2, 13 |
      9, 7, 10, 5, 12, 14, 15, 13, 2, 16, 6, 17, 4, 8, 11, 18, 20, 19, 3, 1 |
      18, 8, 5, 7, 16, 10, 11, 1, 19, 14, 13, 6, 3, 12, 20, 17, 9, 15, 4, 2 |
      7, 16, 14, 11, 18, 19, 4, 1, 5, 20, 9, 12, 10, 3, 6, 13, 15, 8, 2, 17 |
      16, 9, 4, 11, 12, 1, 6, 3, 7, 8, 20, 15, 10, 13, 5, 14, 18, 17, 19, 2 |
      11, 14, 10, 7, 1, 3, 8, 12, 17, 5, 13, 2, 19, 20, 6, 15, 4, 9, 16, 18 |
      13, 1, 8, 9, 20, 16, 11, 14, 6, 10, 4, 18, 15, 19, 3, 5, 17, 2, 7, 12 |
      9, 14, 2, 12, 19, 15, 16, 4, 7, 10, 8, 3, 6, 20, 1, 11, 18, 17, 5, 13 |
      10, 12, 9, 11, 20, 16, 5, 6, 18, 13, 2, 19, 7, 8, 17, 1, 4, 14, 3, 15 |
      10, 8, 16, 19, 17, 18, 1, 2, 15, 4, 12, 7, 9, 14, 13, 11, 3, 20, 5, 6 |
      10, 15, 6, 20, 12, 16, 8, 5, 19, 11, 9, 7, 1, 18, 13, 17, 4, 14, 2, 3 |
      18, 19, 13, 9, 14, 7, 20, 2, 6, 1, 10, 3, 11, 17, 4, 5, 8, 12, 15, 16 |
      9, 3, 1, 14, 12, 4, 10, 13, 5, 18, 2, 8, 15, 19, 6, 11, 17, 20, 16, 7 |
      18, 10, 3, 8, 7, 19, 9, 1, 16, 2, 5, 6, 13, 12, 4, 20, 17, 15, 14, 11 |
      16, 4, 11, 7, 20, 12, 18, 2, 19, 14, 13, 3, 9, 5, 1, 10, 17, 6, 15, 8 |
      15, 17, 3, 19, 12, 20, 13, 6, 1, 14, 9, 18, 10, 7, 2, 4, 11, 5, 8, 16 |
      2, 7, 3, 9, 4, 8, 12, 19, 18, 16, 1, 6, 14, 10, 17, 15, 5, 11, 20, 13 |
      12, 15, 14, 10, 2, 20, 19, 13, 16, 8, 17, 7, 9, 3, 5, 18, 6, 1, 11, 4 |
      8, 3, 17, 4, 7, 12, 20, 16, 10, 18, 11, 2, 15, 13, 9, 5, 14, 6, 1, 19 |
      2, 8, 20, 5, 6, 16, 10, 4, 19, 11, 9, 7, 13, 1, 12, 18, 17, 15, 14, 3 |
      8, 7, 14, 12, 9, 16, 11, 13, 18, 20, 19, 1, 4, 2, 6, 5, 17, 15, 3, 10 |
      16, 19, 12, 10, 9, 15, 20, 17, 6, 2, 4, 7, 8, 5, 1, 11, 14, 13, 3, 18 |
      4, 7, 15, 10, 16, 18, 19, 17, 1, 5, 9, 14, 13, 11, 12, 2, 8, 6, 20, 3 |
      2, 19, 11, 16, 12, 10, 7, 6, 18, 1, 8, 15, 14, 4, 5, 13, 20, 3, 17, 9 |
      15, 19, 16, 14, 18, 1, 8, 13, 17, 9, 3, 6, 12, 10, 7, 2, 4, 11, 5, 20 |];
