n = 50;
m = 20;

d = [| 71, 67, 71, 21, 3, 31, 41, 66, 80, 24, 31, 34, 23, 10, 24, 34, 87, 66, 40, 63 |
     13, 33, 98, 38, 43, 54, 35, 69, 19, 67, 13, 63, 54, 35, 61, 75, 64, 86, 78, 97 |
     72, 80, 56, 14, 17, 9, 27, 83, 76, 38, 81, 1, 80, 57, 96, 62, 59, 50, 77, 90 |
     52, 27, 16, 2, 41, 1, 11, 57, 73, 31, 74, 3, 28, 74, 40, 68, 7, 32, 16, 87 |
     14, 14, 11, 87, 23, 77, 90, 18, 34, 64, 26, 15, 79, 84, 4, 64, 96, 33, 59, 45 |
     28, 36, 89, 75, 85, 1, 97, 20, 24, 44, 5, 59, 77, 83, 57, 85, 8, 20, 15, 76 |
     77, 59, 96, 42, 96, 32, 10, 96, 73, 93, 57, 63, 70, 43, 29, 27, 90, 99, 20, 62 |
     49, 83, 69, 47, 26, 29, 45, 34, 43, 61, 72, 3, 15, 41, 39, 84, 99, 21, 68, 58 |
     50, 30, 95, 77, 36, 13, 58, 79, 34, 38, 52, 41, 35, 11, 48, 95, 71, 85, 34, 51 |
     81, 61, 62, 79, 45, 90, 41, 57, 26, 83, 96, 61, 91, 78, 81, 80, 72, 2, 56, 43 |
     99, 13, 67, 20, 56, 53, 84, 72, 3, 65, 9, 51, 18, 31, 75, 37, 62, 99, 34, 27 |
     89, 33, 61, 97, 85, 4, 33, 77, 11, 47, 43, 18, 67, 49, 5, 63, 62, 28, 47, 87 |
     18, 9, 27, 27, 42, 31, 72, 53, 59, 42, 28, 79, 6, 53, 15, 97, 68, 26, 71, 84 |
     30, 28, 43, 37, 42, 75, 75, 17, 8, 66, 61, 31, 91, 24, 81, 54, 97, 93, 78, 45 |
     61, 7, 35, 15, 98, 94, 12, 45, 44, 70, 53, 19, 94, 60, 30, 38, 60, 23, 40, 28 |
     92, 98, 59, 97, 57, 71, 99, 77, 10, 99, 28, 73, 33, 58, 57, 23, 49, 52, 70, 39 |
     35, 29, 36, 97, 75, 46, 69, 20, 1, 84, 71, 31, 36, 4, 47, 24, 83, 9, 73, 35 |
     97, 62, 20, 7, 9, 30, 90, 91, 84, 95, 15, 2, 95, 76, 86, 55, 64, 66, 87, 33 |
     27, 4, 6, 61, 12, 14, 12, 6, 20, 70, 6, 7, 2, 19, 24, 90, 90, 15, 85, 94 |
     81, 68, 71, 67, 60, 40, 2, 30, 17, 60, 45, 47, 60, 60, 7, 13, 55, 21, 10, 40 |
     19, 19, 77, 1, 40, 66, 54, 75, 28, 98, 92, 80, 64, 11, 38, 72, 22, 85, 73, 71 |
     64, 24, 97, 22, 91, 83, 27, 45, 57, 36, 81, 99, 35, 30, 96, 5, 68, 76, 15, 93 |
     7, 88, 24, 33, 26, 22, 81, 34, 89, 78, 80, 28, 8, 33, 22, 87, 52, 67, 53, 84 |
     45, 10, 7, 63, 63, 83, 16, 8, 76, 20, 82, 1, 22, 63, 66, 54, 36, 23, 77, 57 |
     69, 47, 67, 79, 54, 97, 76, 66, 28, 81, 4, 30, 75, 17, 44, 46, 18, 88, 4, 92 |
     14, 44, 34, 24, 50, 19, 75, 58, 18, 7, 50, 82, 38, 8, 92, 50, 6, 23, 7, 17 |
     29, 37, 73, 92, 62, 26, 42, 78, 23, 10, 75, 37, 31, 62, 60, 94, 36, 92, 37, 68 |
     43, 2, 94, 17, 50, 75, 7, 15, 14, 25, 19, 82, 49, 61, 48, 96, 78, 39, 4, 82 |
     94, 89, 95, 84, 99, 56, 30, 52, 80, 29, 54, 13, 19, 32, 15, 32, 56, 83, 7, 81 |
     13, 37, 13, 40, 74, 2, 67, 68, 27, 16, 42, 69, 17, 99, 51, 8, 31, 55, 36, 9 |
     80, 26, 36, 55, 67, 79, 59, 18, 13, 91, 12, 93, 90, 99, 26, 30, 8, 99, 74, 20 |
     20, 54, 92, 71, 98, 16, 84, 57, 89, 98, 76, 4, 47, 15, 21, 87, 63, 71, 15, 68 |
     99, 37, 72, 98, 88, 24, 75, 34, 78, 56, 8, 9, 83, 70, 37, 44, 4, 81, 25, 33 |
     40, 9, 21, 39, 35, 91, 58, 25, 46, 54, 19, 96, 92, 99, 11, 57, 77, 74, 46, 5 |
     64, 37, 51, 56, 99, 46, 87, 53, 82, 61, 25, 42, 88, 70, 43, 98, 98, 18, 45, 27 |
     27, 30, 41, 16, 41, 81, 79, 48, 43, 25, 44, 49, 99, 76, 21, 58, 18, 23, 81, 24 |
     4, 47, 24, 67, 79, 69, 64, 96, 28, 44, 53, 73, 91, 46, 43, 72, 76, 81, 84, 33 |
     58, 26, 38, 47, 15, 84, 50, 72, 60, 53, 12, 67, 76, 70, 33, 6, 10, 39, 28, 26 |
     30, 14, 54, 50, 48, 46, 58, 51, 15, 35, 50, 45, 71, 53, 64, 29, 54, 98, 68, 22 |
     76, 72, 9, 50, 3, 10, 21, 39, 7, 76, 67, 1, 45, 10, 45, 63, 94, 78, 15, 52 |
     62, 79, 6, 6, 73, 29, 32, 20, 69, 74, 26, 56, 43, 49, 28, 7, 72, 23, 11, 35 |
     48, 37, 68, 9, 61, 43, 10, 6, 68, 55, 3, 3, 99, 93, 44, 53, 39, 74, 14, 53 |
     8, 94, 69, 34, 17, 83, 92, 35, 7, 77, 99, 4, 40, 90, 64, 7, 44, 41, 44, 33 |
     96, 10, 34, 94, 86, 28, 68, 83, 55, 93, 47, 89, 71, 61, 32, 84, 46, 93, 77, 91 |
     6, 83, 87, 85, 37, 2, 14, 53, 23, 82, 43, 45, 78, 5, 3, 68, 79, 21, 23, 67 |
     36, 6, 40, 17, 49, 98, 16, 20, 50, 67, 4, 60, 74, 33, 46, 62, 13, 10, 63, 84 |
     62, 56, 18, 33, 35, 17, 54, 17, 67, 90, 37, 22, 61, 16, 96, 16, 3, 18, 20, 61 |
     76, 13, 85, 59, 42, 44, 66, 34, 33, 54, 27, 60, 89, 89, 89, 94, 22, 48, 89, 93 |
     88, 55, 79, 21, 14, 51, 31, 47, 89, 92, 69, 26, 97, 14, 14, 84, 13, 29, 29, 6 |
     57, 99, 65, 99, 28, 83, 21, 30, 40, 81, 94, 69, 30, 88, 84, 97, 25, 23, 31, 81 |];

mc = [| 10, 9, 4, 18, 20, 7, 5, 17, 2, 6, 3, 19, 14, 1, 16, 15, 8, 12, 11, 13 |
      20, 7, 3, 8, 1, 14, 2, 13, 18, 16, 15, 4, 12, 10, 6, 11, 5, 9, 19, 17 |
      15, 5, 11, 18, 19, 2, 3, 20, 12, 13, 6, 8, 17, 10, 1, 14, 9, 4, 7, 16 |
      2, 19, 9, 10, 13, 7, 17, 6, 15, 11, 3, 4, 14, 18, 12, 1, 5, 8, 16, 20 |
      19, 10, 15, 20, 6, 9, 18, 13, 12, 4, 5, 8, 11, 14, 7, 3, 1, 2, 17, 16 |
      7, 19, 6, 14, 16, 10, 8, 20, 3, 4, 2, 11, 5, 17, 18, 12, 9, 15, 1, 13 |
      6, 13, 5, 19, 7, 1, 16, 3, 9, 12, 10, 4, 17, 14, 18, 15, 20, 2, 11, 8 |
      4, 18, 19, 9, 8, 10, 1, 11, 3, 7, 16, 2, 5, 15, 20, 13, 14, 6, 17, 12 |
      13, 18, 2, 4, 10, 6, 9, 19, 11, 7, 20, 12, 17, 1, 15, 8, 3, 16, 5, 14 |
      13, 15, 2, 18, 19, 14, 3, 4, 16, 20, 1, 9, 6, 5, 12, 17, 8, 11, 7, 10 |
      13, 16, 1, 6, 19, 12, 17, 11, 4, 8, 3, 2, 9, 10, 15, 14, 5, 18, 20, 7 |
      4, 10, 16, 8, 6, 12, 18, 11, 15, 9, 7, 5, 17, 3, 19, 20, 1, 2, 14, 13 |
      13, 2, 9, 17, 1, 8, 20, 6, 19, 11, 3, 14, 15, 5, 12, 16, 4, 18, 7, 10 |
      1, 9, 10, 7, 3, 14, 18, 11, 4, 20, 8, 6, 12, 15, 5, 13, 16, 2, 19, 17 |
      18, 9, 6, 7, 15, 19, 17, 11, 10, 20, 16, 3, 4, 8, 5, 2, 13, 12, 1, 14 |
      18, 4, 5, 12, 17, 20, 7, 1, 2, 10, 6, 3, 15, 14, 13, 19, 11, 16, 9, 8 |
      16, 14, 4, 20, 9, 7, 10, 5, 19, 18, 12, 3, 17, 13, 8, 11, 2, 1, 6, 15 |
      15, 10, 19, 9, 17, 11, 20, 18, 14, 4, 6, 2, 1, 7, 13, 5, 3, 8, 16, 12 |
      1, 19, 15, 17, 10, 13, 20, 14, 12, 9, 4, 6, 16, 11, 2, 8, 18, 3, 5, 7 |
      1, 12, 3, 5, 8, 20, 6, 9, 2, 4, 7, 11, 14, 10, 19, 17, 18, 13, 16, 15 |
      18, 1, 17, 2, 16, 14, 11, 12, 7, 15, 5, 8, 13, 19, 9, 20, 10, 3, 6, 4 |
      4, 13, 17, 18, 14, 1, 3, 12, 9, 19, 6, 8, 16, 7, 15, 2, 5, 11, 20, 10 |
      2, 15, 12, 3, 7, 18, 4, 8, 19, 1, 17, 16, 10, 11, 13, 14, 6, 20, 5, 9 |
      11, 8, 5, 7, 12, 17, 1, 16, 18, 6, 4, 15, 19, 3, 9, 13, 14, 20, 2, 10 |
      8, 2, 13, 15, 7, 19, 10, 14, 3, 6, 11, 18, 20, 4, 9, 1, 5, 16, 17, 12 |
      6, 15, 1, 14, 20, 16, 11, 18, 12, 17, 9, 3, 10, 19, 4, 7, 13, 8, 2, 5 |
      5, 19, 17, 1, 3, 4, 11, 20, 15, 14, 10, 2, 8, 9, 12, 16, 13, 18, 7, 6 |
      10, 15, 4, 16, 8, 6, 17, 9, 1, 5, 20, 13, 2, 11, 7, 3, 12, 14, 19, 18 |
      20, 9, 2, 1, 14, 6, 17, 4, 13, 8, 12, 15, 5, 11, 7, 16, 19, 18, 3, 10 |
      5, 16, 19, 15, 14, 10, 7, 13, 1, 6, 12, 17, 8, 2, 3, 4, 9, 20, 18, 11 |
      5, 17, 12, 16, 3, 4, 10, 7, 19, 11, 9, 13, 1, 8, 15, 2, 14, 18, 6, 20 |
      16, 19, 3, 6, 14, 8, 18, 5, 2, 4, 1, 7, 10, 20, 13, 15, 12, 17, 11, 9 |
      13, 20, 5, 6, 2, 19, 12, 10, 4, 8, 7, 3, 16, 17, 14, 15, 1, 18, 9, 11 |
      11, 3, 7, 19, 10, 12, 15, 2, 14, 20, 18, 8, 5, 9, 6, 1, 16, 17, 4, 13 |
      8, 5, 20, 17, 13, 18, 1, 15, 6, 4, 10, 9, 11, 7, 19, 3, 14, 2, 12, 16 |
      11, 15, 3, 5, 20, 1, 14, 17, 4, 19, 12, 6, 7, 9, 13, 8, 10, 16, 2, 18 |
      13, 8, 9, 3, 10, 11, 4, 17, 6, 19, 20, 2, 16, 15, 18, 7, 1, 14, 5, 12 |
      16, 7, 15, 14, 18, 6, 19, 2, 20, 8, 12, 13, 1, 3, 5, 4, 17, 9, 11, 10 |
      6, 10, 3, 7, 8, 4, 18, 20, 12, 14, 5, 19, 11, 13, 9, 17, 2, 16, 15, 1 |
      14, 3, 6, 19, 13, 15, 5, 10, 11, 2, 1, 8, 18, 7, 9, 4, 17, 12, 20, 16 |
      6, 1, 11, 10, 14, 9, 13, 19, 2, 16, 4, 5, 8, 12, 18, 17, 15, 3, 7, 20 |
      20, 16, 7, 14, 18, 2, 19, 8, 13, 10, 5, 11, 9, 3, 17, 1, 12, 15, 4, 6 |
      11, 6, 18, 17, 20, 8, 1, 15, 19, 7, 9, 2, 12, 14, 10, 4, 16, 13, 3, 5 |
      10, 18, 20, 19, 17, 4, 3, 7, 6, 5, 15, 9, 16, 12, 13, 11, 1, 8, 14, 2 |
      14, 8, 5, 12, 6, 19, 18, 2, 16, 4, 11, 3, 1, 17, 9, 15, 20, 7, 10, 13 |
      19, 6, 7, 14, 13, 9, 15, 12, 18, 17, 2, 4, 1, 8, 10, 11, 16, 5, 20, 3 |
      11, 2, 8, 18, 20, 3, 19, 16, 5, 4, 6, 12, 17, 15, 7, 13, 1, 9, 10, 14 |
      11, 10, 3, 8, 13, 1, 6, 20, 9, 4, 14, 17, 2, 5, 15, 12, 16, 19, 18, 7 |
      3, 5, 9, 20, 4, 1, 14, 11, 16, 2, 17, 8, 7, 18, 19, 6, 12, 15, 13, 10 |
      15, 20, 8, 11, 3, 2, 1, 9, 7, 14, 18, 10, 12, 5, 17, 13, 16, 19, 6, 4 |];
