n = 15;
m = 8;

d = [| 32, 82, 69, 16, 36, 86, 68, 36 |
     82, 69, 79, 64, 83, 56, 22, 64 |
     93, 56, 97, 77, 82, 71, 78, 11 |
     64, 50, 22, 97, 48, 14, 81, 8 |
     23, 63, 12, 71, 25, 28, 97, 11 |
     25, 29, 57, 87, 6, 95, 93, 19 |
     26, 92, 32, 28, 17, 33, 84, 53 |
     7, 66, 48, 71, 65, 46, 3, 59 |
     40, 33, 45, 17, 76, 41, 55, 80 |
     4, 28, 36, 2, 21, 27, 24, 97 |
     95, 59, 36, 81, 61, 63, 41, 15 |
     17, 21, 20, 33, 62, 25, 69, 86 |
     5, 29, 40, 88, 71, 11, 20, 49 |
     11, 72, 21, 11, 70, 66, 19, 39 |
     11, 10, 27, 11, 15, 2, 53, 9 |];

mc = [| 7, 5, 8, 1, 2, 4, 6, 3 |
      3, 7, 4, 6, 5, 8, 2, 1 |
      7, 8, 6, 1, 3, 2, 4, 5 |
      7, 8, 5, 6, 2, 4, 3, 1 |
      3, 5, 6, 7, 4, 2, 8, 1 |
      2, 8, 7, 3, 5, 1, 6, 4 |
      1, 2, 6, 8, 3, 5, 4, 7 |
      4, 1, 6, 8, 3, 5, 2, 7 |
      3, 6, 1, 2, 7, 8, 4, 5 |
      3, 8, 1, 6, 4, 2, 5, 7 |
      7, 4, 2, 3, 8, 5, 6, 1 |
      8, 2, 3, 1, 5, 6, 4, 7 |
      8, 6, 5, 3, 1, 2, 7, 4 |
      3, 1, 7, 8, 6, 4, 5, 2 |
      1, 4, 7, 6, 5, 3, 2, 8 |];
