n = 10;
m = 10;

d = [| 49, 24, 99, 91, 48, 55, 16, 21, 35, 68 |
     68, 24, 18, 13, 48, 9, 9, 71, 6, 72 |
     47, 83, 13, 17, 10, 96, 31, 99, 90, 62 |
     42, 65, 75, 60, 68, 11, 70, 35, 76, 7 |
     46, 78, 23, 51, 49, 11, 5, 93, 83, 30 |
     52, 28, 35, 6, 8, 84, 42, 88, 32, 18 |
     7, 52, 32, 93, 40, 22, 20, 66, 75, 62 |
     57, 16, 97, 47, 60, 78, 66, 50, 8, 52 |
     67, 62, 96, 59, 77, 29, 8, 41, 48, 37 |
     43, 62, 87, 13, 91, 45, 38, 67, 86, 27 |];

mc = [| 3, 1, 4, 2, 10, 5, 8, 9, 6, 7 |
      1, 10, 7, 9, 2, 5, 6, 4, 3, 8 |
      1, 7, 3, 6, 5, 4, 9, 2, 8, 10 |
      7, 4, 1, 5, 10, 8, 2, 3, 6, 9 |
      6, 2, 1, 3, 9, 5, 8, 10, 4, 7 |
      7, 4, 5, 3, 10, 9, 2, 1, 8, 6 |
      6, 9, 10, 2, 4, 1, 5, 8, 3, 7 |
      4, 6, 3, 9, 7, 10, 5, 1, 8, 2 |
      10, 8, 5, 2, 9, 7, 3, 1, 4, 6 |
      6, 8, 10, 7, 4, 9, 1, 5, 3, 2 |];
