n = 15;
m = 8;

d = [| 9, 76, 10, 59, 59, 4, 70, 5 |
     20, 88, 47, 11, 62, 7, 83, 92 |
     81, 83, 62, 42, 93, 46, 60, 27 |
     88, 57, 75, 80, 84, 83, 3, 59 |
     19, 92, 31, 33, 72, 14, 6, 39 |
     73, 26, 16, 71, 77, 49, 19, 28 |
     86, 62, 32, 82, 67, 93, 46, 38 |
     9, 28, 20, 43, 28, 79, 48, 25 |
     37, 97, 58, 60, 97, 89, 30, 45 |
     65, 25, 92, 28, 41, 4, 47, 86 |
     57, 80, 56, 29, 55, 1, 65, 41 |
     67, 41, 40, 48, 9, 53, 99, 92 |
     59, 52, 11, 18, 55, 29, 56, 35 |
     11, 12, 29, 32, 49, 90, 28, 41 |
     33, 55, 96, 78, 76, 66, 84, 32 |];

mc = [| 3, 6, 8, 4, 1, 2, 7, 5 |
      2, 1, 4, 6, 8, 7, 3, 5 |
      3, 5, 1, 2, 7, 4, 6, 8 |
      3, 4, 2, 7, 8, 5, 6, 1 |
      5, 1, 4, 2, 3, 8, 6, 7 |
      7, 4, 5, 3, 6, 2, 8, 1 |
      7, 8, 5, 3, 4, 6, 2, 1 |
      5, 2, 4, 8, 6, 7, 3, 1 |
      3, 1, 4, 2, 8, 6, 5, 7 |
      6, 7, 2, 8, 4, 1, 3, 5 |
      7, 3, 5, 6, 8, 4, 1, 2 |
      5, 4, 8, 1, 2, 7, 3, 6 |
      1, 5, 6, 4, 2, 3, 7, 8 |
      5, 3, 7, 8, 1, 4, 2, 6 |
      7, 6, 1, 2, 5, 3, 8, 4 |];
