n = 30;
m = 15;

d = [| 36, 26, 6, 4, 56, 67, 97, 11, 94, 39, 70, 2, 28, 68, 20 |
     60, 81, 54, 38, 29, 21, 24, 25, 65, 59, 40, 83, 58, 71, 82 |
     78, 81, 38, 53, 10, 28, 56, 77, 25, 24, 65, 31, 51, 26, 31 |
     91, 21, 70, 65, 20, 11, 25, 83, 79, 90, 52, 18, 5, 54, 81 |
     28, 27, 46, 20, 84, 72, 88, 23, 15, 67, 6, 77, 64, 34, 35 |
     57, 97, 40, 8, 48, 56, 70, 9, 86, 73, 28, 70, 75, 40, 80 |
     86, 43, 41, 82, 9, 36, 55, 51, 77, 60, 86, 40, 42, 96, 34 |
     86, 47, 51, 33, 66, 21, 4, 95, 61, 89, 33, 68, 24, 90, 34 |
     48, 73, 51, 29, 74, 21, 78, 58, 68, 33, 63, 26, 94, 44, 86 |
     20, 82, 26, 93, 18, 95, 25, 52, 26, 50, 48, 12, 22, 44, 64 |
     16, 1, 66, 15, 10, 84, 27, 15, 8, 24, 66, 41, 70, 95, 66 |
     85, 91, 75, 46, 83, 33, 15, 90, 1, 38, 51, 52, 42, 40, 15 |
     53, 72, 73, 97, 97, 80, 51, 73, 40, 20, 70, 54, 59, 97, 14 |
     37, 54, 55, 1, 34, 91, 35, 65, 46, 5, 68, 82, 92, 8, 13 |
     60, 36, 58, 17, 58, 74, 42, 8, 77, 65, 73, 87, 40, 42, 39 |
     33, 49, 62, 11, 77, 30, 80, 81, 33, 20, 76, 98, 74, 37, 16 |
     64, 68, 79, 16, 38, 2, 51, 1, 51, 56, 42, 18, 30, 50, 94 |
     45, 89, 95, 72, 64, 2, 63, 60, 68, 29, 84, 42, 59, 33, 24 |
     25, 59, 12, 61, 67, 90, 38, 94, 45, 14, 65, 31, 79, 61, 16 |
     7, 96, 70, 3, 58, 63, 29, 78, 84, 33, 36, 74, 37, 63, 65 |
     24, 37, 67, 73, 3, 85, 35, 18, 40, 87, 1, 33, 76, 40, 72 |
     91, 61, 40, 74, 91, 86, 62, 20, 8, 52, 87, 32, 83, 79, 18 |
     11, 71, 37, 11, 70, 21, 52, 9, 54, 58, 39, 95, 54, 92, 83 |
     40, 67, 35, 73, 46, 48, 54, 56, 31, 73, 50, 56, 3, 13, 32 |
     53, 43, 13, 96, 90, 41, 55, 87, 95, 2, 2, 43, 45, 45, 28 |
     6, 47, 67, 98, 43, 53, 69, 40, 28, 10, 34, 50, 90, 57, 15 |
     65, 6, 61, 28, 95, 16, 79, 83, 90, 29, 13, 78, 74, 73, 54 |
     15, 39, 90, 85, 67, 39, 71, 84, 90, 28, 69, 26, 26, 76, 59 |
     71, 88, 92, 18, 46, 82, 44, 94, 31, 60, 30, 12, 81, 5, 56 |
     81, 6, 86, 66, 20, 76, 58, 93, 44, 84, 68, 3, 96, 7, 16 |];

mc = [| 5, 8, 10, 9, 7, 12, 4, 11, 6, 14, 2, 1, 15, 13, 3 |
      1, 5, 13, 12, 4, 14, 3, 10, 8, 6, 9, 7, 15, 11, 2 |
      9, 12, 11, 6, 7, 5, 2, 1, 8, 13, 14, 3, 15, 10, 4 |
      7, 1, 15, 4, 6, 9, 2, 10, 5, 13, 12, 3, 14, 11, 8 |
      15, 5, 4, 12, 10, 11, 14, 7, 8, 3, 2, 9, 6, 1, 13 |
      3, 14, 10, 1, 7, 4, 6, 15, 5, 13, 11, 12, 2, 9, 8 |
      6, 11, 1, 8, 5, 9, 12, 15, 14, 7, 2, 4, 10, 13, 3 |
      12, 1, 2, 10, 15, 6, 3, 14, 4, 9, 7, 5, 13, 11, 8 |
      3, 12, 6, 14, 2, 4, 1, 15, 7, 5, 11, 13, 8, 10, 9 |
      2, 9, 5, 10, 14, 11, 13, 8, 7, 15, 1, 3, 6, 4, 12 |
      2, 8, 13, 9, 15, 6, 7, 12, 14, 11, 3, 1, 5, 4, 10 |
      9, 11, 6, 8, 4, 12, 10, 14, 1, 5, 7, 3, 2, 13, 15 |
      2, 8, 4, 12, 3, 13, 1, 11, 15, 10, 7, 9, 6, 5, 14 |
      9, 6, 8, 10, 13, 2, 4, 3, 7, 11, 1, 15, 5, 14, 12 |
      2, 4, 11, 14, 7, 8, 5, 10, 15, 9, 6, 12, 13, 1, 3 |
      12, 4, 6, 5, 8, 10, 14, 1, 9, 11, 15, 3, 7, 2, 13 |
      7, 8, 9, 15, 1, 12, 10, 5, 11, 2, 13, 14, 6, 4, 3 |
      4, 3, 5, 1, 2, 10, 12, 15, 11, 14, 8, 7, 6, 9, 13 |
      10, 14, 2, 8, 1, 6, 4, 15, 12, 11, 3, 7, 13, 5, 9 |
      15, 10, 14, 1, 7, 8, 12, 6, 5, 11, 3, 4, 2, 13, 9 |
      12, 13, 4, 11, 1, 5, 14, 3, 10, 15, 7, 9, 8, 2, 6 |
      1, 8, 11, 14, 9, 4, 3, 12, 7, 6, 15, 13, 10, 5, 2 |
      6, 8, 9, 13, 10, 12, 14, 11, 2, 1, 5, 3, 7, 15, 4 |
      5, 12, 3, 11, 4, 8, 1, 2, 15, 7, 9, 6, 10, 13, 14 |
      1, 13, 7, 12, 8, 11, 14, 15, 10, 6, 4, 9, 5, 2, 3 |
      7, 4, 2, 8, 15, 5, 6, 9, 10, 1, 3, 13, 11, 12, 14 |
      2, 11, 7, 6, 10, 3, 5, 12, 14, 1, 8, 13, 4, 9, 15 |
      1, 6, 9, 14, 12, 2, 10, 7, 13, 11, 4, 8, 3, 5, 15 |
      10, 13, 11, 1, 14, 12, 6, 3, 15, 4, 8, 5, 9, 2, 7 |
      8, 3, 9, 13, 11, 12, 4, 15, 10, 6, 1, 7, 14, 2, 5 |];
