n = 15;
m = 8;

d = [| 99, 55, 90, 59, 22, 56, 16, 42 |
     47, 81, 14, 34, 67, 45, 58, 79 |
     12, 5, 28, 82, 8, 44, 35, 4 |
     72, 45, 13, 94, 59, 96, 73, 61 |
     5, 81, 77, 64, 94, 12, 90, 91 |
     56, 95, 75, 19, 45, 88, 36, 12 |
     10, 32, 96, 76, 6, 9, 38, 99 |
     95, 71, 9, 4, 60, 66, 23, 26 |
     89, 32, 40, 70, 74, 48, 3, 98 |
     53, 80, 62, 79, 68, 27, 45, 90 |
     77, 40, 85, 76, 51, 33, 67, 48 |
     49, 43, 64, 59, 16, 91, 67, 43 |
     20, 90, 5, 16, 36, 62, 54, 82 |
     57, 94, 81, 5, 14, 19, 63, 59 |
     90, 42, 94, 77, 47, 45, 99, 66 |];

mc = [| 5, 4, 1, 7, 6, 8, 2, 3 |
      1, 3, 7, 6, 5, 4, 8, 2 |
      8, 2, 4, 6, 1, 3, 5, 7 |
      2, 7, 8, 1, 4, 5, 6, 3 |
      1, 2, 6, 8, 7, 3, 5, 4 |
      8, 6, 3, 5, 7, 4, 1, 2 |
      5, 7, 4, 1, 2, 8, 6, 3 |
      8, 1, 2, 7, 6, 3, 4, 5 |
      5, 6, 4, 8, 2, 3, 1, 7 |
      3, 6, 5, 8, 4, 7, 2, 1 |
      2, 5, 4, 3, 1, 8, 7, 6 |
      3, 7, 1, 4, 2, 6, 5, 8 |
      7, 1, 8, 6, 5, 2, 3, 4 |
      7, 6, 8, 3, 2, 4, 5, 1 |
      8, 7, 5, 2, 3, 6, 4, 1 |];
