n = 15;
m = 15;

d = [| 7, 52, 35, 82, 96, 57, 60, 24, 29, 17, 15, 26, 33, 49, 70 |
     86, 4, 31, 99, 5, 88, 91, 11, 12, 88, 68, 72, 90, 8, 30 |
     36, 98, 39, 37, 75, 86, 36, 90, 67, 18, 87, 98, 29, 86, 55 |
     73, 97, 57, 26, 7, 58, 46, 58, 85, 24, 72, 25, 78, 61, 72 |
     34, 42, 6, 72, 76, 37, 62, 54, 40, 27, 27, 6, 93, 66, 54 |
     49, 74, 53, 18, 44, 64, 59, 43, 88, 66, 77, 56, 69, 14, 88 |
     15, 18, 42, 14, 52, 36, 39, 60, 3, 4, 35, 37, 31, 46, 3 |
     14, 12, 35, 54, 32, 87, 89, 77, 81, 21, 30, 4, 47, 26, 25 |
     5, 27, 78, 72, 22, 68, 87, 13, 68, 51, 38, 13, 74, 46, 26 |
     25, 33, 40, 53, 88, 38, 39, 91, 2, 17, 35, 51, 44, 40, 62 |
     10, 89, 12, 44, 49, 62, 90, 52, 62, 88, 10, 28, 40, 6, 61 |
     57, 56, 70, 51, 82, 62, 93, 9, 63, 97, 24, 52, 98, 32, 9 |
     31, 51, 54, 5, 72, 73, 30, 73, 61, 50, 69, 71, 92, 59, 4 |
     61, 90, 30, 28, 26, 3, 24, 22, 87, 57, 37, 61, 60, 99, 60 |
     35, 5, 16, 3, 3, 6, 10, 36, 79, 6, 13, 55, 29, 33, 30 |];

mc = [| 11, 13, 2, 12, 4, 7, 6, 3, 10, 14, 15, 9, 8, 5, 1 |
      3, 13, 1, 8, 2, 9, 10, 11, 15, 7, 6, 14, 4, 5, 12 |
      7, 2, 12, 14, 3, 5, 10, 8, 1, 11, 15, 6, 4, 9, 13 |
      1, 14, 11, 8, 3, 6, 2, 13, 4, 5, 9, 7, 12, 15, 10 |
      6, 1, 8, 12, 13, 14, 9, 4, 3, 15, 10, 2, 11, 5, 7 |
      13, 10, 12, 8, 2, 4, 6, 1, 9, 7, 3, 5, 15, 11, 14 |
      3, 9, 4, 1, 7, 10, 15, 14, 11, 13, 8, 6, 2, 5, 12 |
      8, 9, 3, 7, 2, 15, 4, 11, 10, 5, 1, 14, 12, 6, 13 |
      5, 2, 11, 14, 1, 4, 10, 7, 8, 12, 6, 15, 3, 13, 9 |
      3, 4, 11, 13, 12, 14, 9, 5, 1, 2, 15, 8, 7, 6, 10 |
      14, 9, 7, 6, 11, 1, 2, 12, 4, 8, 3, 13, 15, 5, 10 |
      14, 10, 1, 5, 11, 9, 8, 7, 3, 6, 15, 12, 4, 13, 2 |
      3, 4, 11, 1, 9, 5, 2, 13, 12, 14, 15, 8, 10, 7, 6 |
      13, 2, 11, 8, 10, 1, 5, 3, 14, 9, 15, 7, 12, 6, 4 |
      7, 8, 4, 9, 15, 13, 12, 6, 5, 2, 14, 1, 10, 11, 3 |];
