n = 10;
m = 10;

d = [| 23, 96, 6, 68, 14, 42, 21, 5, 96, 57 |
     15, 31, 45, 55, 57, 35, 14, 24, 16, 28 |
     69, 4, 13, 8, 18, 39, 16, 40, 60, 85 |
     32, 32, 61, 37, 95, 75, 80, 47, 10, 59 |
     37, 26, 72, 31, 83, 8, 6, 33, 20, 84 |
     50, 64, 51, 29, 46, 12, 1, 9, 47, 42 |
     10, 2, 46, 1, 18, 46, 54, 50, 37, 79 |
     87, 48, 40, 14, 18, 7, 5, 14, 33, 74 |
     64, 8, 8, 61, 85, 84, 85, 55, 91, 44 |
     39, 64, 69, 83, 78, 79, 2, 41, 2, 42 |];

mc = [| 5, 10, 1, 2, 3, 9, 6, 4, 7, 8 |
      3, 6, 1, 9, 5, 10, 2, 4, 8, 7 |
      6, 5, 1, 4, 2, 8, 10, 3, 9, 7 |
      8, 2, 1, 4, 3, 9, 5, 6, 7, 10 |
      3, 4, 7, 6, 10, 9, 2, 1, 8, 5 |
      6, 4, 2, 7, 1, 5, 8, 3, 9, 10 |
      8, 3, 1, 2, 9, 4, 7, 6, 10, 5 |
      1, 7, 10, 2, 4, 5, 6, 8, 3, 9 |
      4, 10, 6, 2, 3, 8, 5, 1, 9, 7 |
      4, 2, 9, 3, 5, 7, 1, 8, 6, 10 |];
