n = 100;
m = 20;

d = [| 11, 85, 28, 67, 63, 54, 4, 92, 49, 60, 87, 98, 68, 70, 61, 99, 53, 75, 80, 99 |
     69, 5, 36, 4, 50, 22, 75, 7, 75, 91, 11, 16, 20, 26, 57, 66, 64, 80, 32, 63 |
     53, 4, 52, 68, 8, 91, 23, 13, 11, 32, 53, 59, 64, 15, 58, 21, 67, 6, 14, 10 |
     53, 92, 46, 44, 80, 67, 49, 37, 35, 22, 62, 72, 59, 53, 45, 98, 77, 26, 20, 45 |
     24, 77, 44, 88, 24, 44, 59, 20, 86, 53, 90, 55, 15, 83, 64, 20, 6, 43, 11, 78 |
     48, 55, 17, 47, 39, 1, 91, 39, 21, 59, 52, 40, 54, 60, 9, 86, 55, 72, 30, 65 |
     44, 44, 79, 32, 47, 78, 71, 9, 3, 57, 48, 35, 39, 6, 7, 90, 46, 32, 22, 47 |
     61, 51, 99, 95, 77, 31, 75, 10, 6, 59, 45, 29, 43, 49, 76, 23, 28, 79, 63, 83 |
     54, 2, 23, 82, 88, 5, 90, 73, 1, 57, 98, 14, 14, 20, 72, 14, 31, 4, 49, 30 |
     61, 77, 62, 87, 29, 55, 23, 15, 8, 1, 85, 18, 68, 74, 85, 79, 74, 59, 12, 93 |
     39, 15, 70, 40, 94, 19, 41, 6, 49, 55, 59, 98, 33, 51, 87, 44, 47, 24, 67, 25 |
     60, 85, 61, 32, 83, 99, 86, 95, 52, 21, 64, 5, 47, 51, 50, 15, 44, 83, 82, 66 |
     43, 41, 16, 64, 93, 93, 81, 9, 99, 26, 53, 80, 78, 20, 33, 31, 43, 56, 78, 81 |
     84, 2, 6, 61, 98, 59, 2, 20, 48, 96, 4, 73, 13, 47, 32, 82, 89, 70, 61, 30 |
     68, 89, 47, 80, 13, 74, 90, 60, 38, 89, 85, 85, 20, 85, 99, 97, 64, 80, 8, 89 |
     16, 7, 51, 98, 68, 60, 26, 89, 78, 29, 24, 89, 23, 89, 46, 53, 87, 6, 18, 55 |
     54, 28, 80, 45, 81, 31, 66, 64, 1, 46, 15, 62, 69, 49, 93, 79, 2, 90, 95, 69 |
     48, 66, 12, 20, 24, 25, 61, 52, 11, 65, 88, 82, 7, 8, 15, 53, 37, 89, 66, 74 |
     69, 20, 4, 19, 62, 30, 39, 9, 73, 36, 94, 67, 33, 82, 20, 70, 84, 15, 76, 71 |
     11, 64, 8, 33, 88, 44, 71, 56, 77, 24, 11, 96, 62, 57, 69, 64, 51, 48, 74, 75 |
     99, 80, 44, 29, 5, 25, 44, 29, 64, 37, 84, 66, 96, 5, 82, 69, 43, 95, 45, 64 |
     63, 41, 66, 21, 69, 65, 23, 88, 27, 9, 1, 16, 1, 14, 89, 13, 85, 84, 63, 26 |
     26, 4, 30, 74, 98, 87, 24, 40, 90, 2, 97, 41, 34, 15, 55, 78, 62, 7, 98, 20 |
     16, 86, 35, 63, 39, 39, 97, 53, 93, 64, 11, 66, 89, 75, 8, 74, 78, 10, 67, 43 |
     8, 45, 73, 45, 89, 39, 43, 86, 68, 57, 53, 66, 34, 74, 93, 17, 96, 41, 1, 43 |
     37, 86, 45, 79, 59, 61, 4, 35, 60, 86, 8, 84, 68, 55, 7, 26, 38, 78, 68, 31 |
     15, 75, 64, 83, 61, 72, 19, 33, 56, 61, 63, 90, 46, 78, 47, 51, 85, 60, 74, 49 |
     27, 91, 60, 6, 79, 60, 71, 12, 82, 29, 96, 97, 71, 92, 38, 11, 16, 14, 21, 23 |
     43, 84, 3, 78, 58, 81, 48, 86, 27, 79, 89, 19, 45, 98, 49, 21, 86, 33, 50, 86 |
     47, 84, 13, 42, 15, 87, 89, 35, 62, 37, 23, 7, 2, 63, 42, 97, 50, 71, 8, 53 |
     52, 89, 37, 93, 69, 49, 13, 40, 26, 1, 92, 9, 60, 27, 69, 1, 68, 25, 29, 90 |
     40, 24, 96, 34, 61, 76, 52, 76, 90, 83, 94, 15, 36, 81, 97, 34, 57, 81, 8, 31 |
     11, 95, 57, 5, 26, 50, 1, 19, 23, 37, 68, 13, 3, 42, 79, 93, 90, 30, 84, 84 |
     64, 33, 16, 80, 58, 49, 36, 2, 4, 11, 43, 88, 24, 10, 33, 81, 11, 37, 40, 40 |
     78, 13, 15, 80, 59, 73, 97, 51, 28, 73, 55, 31, 30, 23, 9, 93, 38, 69, 18, 94 |
     82, 75, 10, 83, 77, 40, 32, 57, 87, 64, 56, 29, 84, 57, 19, 22, 64, 61, 50, 97 |
     27, 52, 6, 78, 60, 12, 88, 51, 88, 86, 8, 47, 86, 58, 32, 15, 69, 43, 3, 1 |
     95, 74, 46, 6, 50, 28, 66, 77, 1, 1, 69, 62, 35, 18, 87, 1, 67, 86, 12, 85 |
     37, 2, 50, 57, 89, 58, 93, 59, 35, 14, 70, 30, 25, 10, 79, 67, 96, 17, 19, 90 |
     87, 62, 91, 69, 19, 34, 29, 94, 32, 47, 93, 31, 39, 45, 87, 30, 38, 16, 71, 6 |
     80, 98, 35, 27, 88, 62, 55, 65, 91, 87, 81, 78, 82, 70, 57, 67, 5, 11, 11, 93 |
     17, 76, 81, 30, 80, 70, 49, 37, 67, 37, 9, 45, 72, 81, 65, 17, 54, 39, 16, 79 |
     80, 37, 82, 40, 18, 99, 60, 51, 94, 24, 53, 30, 79, 38, 60, 49, 44, 94, 26, 42 |
     49, 9, 28, 76, 57, 21, 68, 96, 44, 66, 50, 92, 26, 28, 5, 76, 16, 44, 59, 79 |
     24, 82, 42, 4, 31, 19, 26, 95, 6, 52, 75, 79, 85, 4, 79, 75, 26, 17, 93, 45 |
     51, 75, 33, 37, 94, 80, 3, 7, 18, 19, 82, 49, 44, 67, 82, 36, 13, 26, 62, 40 |
     10, 73, 68, 93, 31, 5, 16, 43, 36, 21, 76, 85, 78, 3, 52, 10, 94, 60, 17, 59 |
     76, 69, 69, 55, 41, 7, 62, 32, 48, 2, 94, 49, 10, 49, 38, 82, 55, 26, 28, 47 |
     41, 40, 43, 84, 66, 79, 52, 3, 71, 93, 47, 36, 66, 91, 72, 63, 50, 62, 8, 95 |
     47, 5, 39, 92, 55, 5, 28, 89, 7, 2, 53, 95, 94, 16, 78, 20, 58, 20, 90, 12 |
     90, 14, 87, 90, 16, 36, 33, 59, 58, 10, 67, 10, 38, 22, 95, 36, 33, 51, 43, 80 |
     97, 64, 11, 6, 40, 98, 60, 3, 22, 91, 62, 35, 23, 83, 98, 12, 31, 23, 40, 61 |
     20, 28, 19, 19, 32, 75, 67, 15, 67, 93, 85, 66, 88, 21, 61, 89, 21, 34, 40, 44 |
     86, 86, 67, 25, 5, 63, 22, 91, 32, 2, 3, 6, 11, 63, 44, 90, 49, 19, 23, 26 |
     82, 84, 54, 91, 66, 22, 97, 43, 45, 3, 31, 16, 44, 96, 28, 92, 2, 29, 70, 58 |
     66, 16, 58, 80, 43, 78, 6, 23, 5, 12, 54, 61, 44, 73, 26, 71, 43, 51, 71, 29 |
     43, 7, 48, 74, 74, 94, 86, 31, 67, 85, 9, 64, 40, 56, 1, 2, 17, 15, 67, 27 |
     36, 44, 86, 72, 77, 44, 27, 99, 10, 37, 29, 79, 85, 36, 57, 81, 9, 72, 14, 49 |
     53, 66, 8, 35, 49, 71, 39, 83, 55, 69, 48, 82, 13, 29, 41, 42, 7, 78, 79, 51 |
     95, 24, 58, 90, 62, 6, 88, 44, 66, 94, 49, 95, 58, 74, 94, 81, 97, 75, 24, 57 |
     18, 47, 30, 12, 30, 29, 87, 83, 39, 3, 60, 36, 48, 1, 97, 15, 62, 62, 65, 93 |
     75, 54, 67, 63, 56, 97, 4, 87, 83, 93, 42, 52, 72, 30, 66, 76, 61, 75, 28, 59 |
     47, 68, 70, 50, 67, 57, 27, 66, 4, 81, 83, 73, 11, 78, 33, 93, 89, 32, 70, 24 |
     74, 61, 51, 29, 89, 44, 5, 47, 96, 2, 83, 12, 18, 42, 10, 46, 3, 42, 55, 76 |
     25, 65, 56, 47, 54, 82, 81, 80, 15, 57, 98, 43, 68, 14, 82, 12, 11, 73, 60, 82 |
     3, 60, 18, 88, 61, 5, 54, 20, 59, 79, 82, 15, 6, 10, 72, 6, 88, 66, 74, 1 |
     32, 72, 37, 34, 58, 21, 28, 68, 76, 76, 96, 32, 28, 11, 29, 85, 64, 86, 64, 65 |
     15, 96, 82, 72, 5, 81, 30, 4, 15, 46, 27, 33, 37, 7, 14, 4, 81, 87, 17, 23 |
     64, 67, 24, 1, 3, 59, 82, 89, 85, 87, 71, 93, 35, 9, 47, 57, 52, 74, 26, 6 |
     64, 52, 20, 80, 24, 63, 40, 47, 53, 96, 81, 13, 34, 31, 57, 90, 85, 73, 5, 21 |
     94, 30, 6, 85, 52, 82, 38, 88, 37, 70, 99, 36, 39, 58, 67, 77, 58, 94, 35, 97 |
     62, 43, 65, 97, 58, 52, 34, 60, 72, 28, 30, 38, 53, 90, 24, 48, 85, 47, 57, 4 |
     54, 39, 15, 11, 68, 38, 33, 80, 60, 70, 83, 49, 80, 63, 96, 82, 85, 41, 70, 74 |
     75, 3, 57, 53, 63, 66, 44, 49, 30, 12, 80, 40, 35, 83, 42, 46, 64, 2, 6, 42 |
     85, 76, 1, 67, 7, 36, 65, 11, 26, 12, 23, 9, 9, 75, 31, 31, 76, 77, 35, 50 |
     39, 81, 30, 13, 33, 99, 49, 96, 93, 2, 70, 8, 3, 78, 78, 66, 41, 18, 26, 75 |
     2, 51, 73, 74, 33, 29, 74, 26, 45, 89, 69, 51, 85, 49, 13, 76, 9, 1, 44, 23 |
     7, 91, 1, 26, 34, 36, 60, 40, 52, 29, 21, 95, 72, 44, 87, 99, 33, 67, 4, 66 |
     6, 83, 68, 68, 5, 67, 6, 70, 82, 47, 50, 51, 81, 26, 84, 97, 60, 19, 3, 99 |
     28, 57, 8, 41, 86, 99, 32, 96, 52, 29, 87, 99, 15, 29, 8, 44, 90, 70, 38, 11 |
     79, 59, 49, 76, 69, 62, 5, 2, 67, 44, 66, 69, 52, 24, 30, 43, 83, 10, 3, 11 |
     54, 99, 11, 74, 62, 14, 5, 87, 90, 69, 36, 78, 79, 58, 75, 80, 43, 50, 8, 25 |
     92, 80, 23, 81, 63, 56, 38, 55, 21, 19, 14, 97, 56, 9, 47, 47, 53, 35, 72, 56 |
     18, 94, 93, 39, 31, 43, 66, 44, 48, 93, 88, 35, 64, 16, 84, 34, 64, 59, 7, 60 |
     7, 87, 67, 25, 35, 22, 35, 74, 72, 47, 78, 9, 46, 24, 76, 92, 86, 57, 73, 28 |
     29, 33, 72, 9, 98, 95, 41, 85, 90, 36, 8, 91, 75, 34, 77, 12, 83, 77, 53, 18 |
     61, 10, 19, 96, 16, 33, 84, 75, 74, 63, 96, 57, 72, 15, 17, 10, 77, 93, 13, 73 |
     69, 57, 7, 71, 47, 31, 45, 52, 97, 15, 18, 30, 28, 2, 50, 48, 35, 19, 78, 99 |
     71, 46, 25, 58, 86, 53, 44, 17, 67, 63, 10, 90, 64, 90, 38, 78, 34, 56, 79, 67 |
     69, 84, 33, 78, 24, 75, 68, 61, 78, 93, 71, 25, 77, 46, 56, 23, 71, 17, 94, 7 |
     95, 93, 10, 36, 84, 61, 41, 45, 69, 69, 48, 24, 90, 35, 54, 30, 70, 77, 66, 31 |
     66, 71, 54, 2, 45, 23, 44, 86, 89, 84, 86, 38, 90, 46, 54, 81, 75, 65, 53, 19 |
     34, 77, 92, 27, 1, 23, 27, 29, 92, 54, 88, 95, 55, 18, 95, 82, 93, 72, 58, 14 |
     21, 82, 28, 81, 19, 33, 98, 14, 44, 77, 94, 65, 93, 71, 11, 9, 90, 56, 93, 4 |
     82, 47, 85, 35, 28, 90, 34, 87, 2, 42, 49, 96, 72, 17, 31, 85, 28, 79, 90, 59 |
     23, 73, 76, 1, 13, 8, 6, 95, 84, 60, 79, 21, 8, 39, 79, 52, 19, 75, 6, 21 |
     61, 64, 58, 12, 85, 14, 78, 96, 35, 23, 32, 5, 45, 43, 76, 3, 78, 68, 46, 18 |
     59, 17, 69, 70, 42, 53, 69, 81, 31, 75, 8, 19, 27, 60, 97, 73, 30, 8, 68, 98 |
     17, 65, 24, 55, 89, 44, 75, 1, 56, 85, 83, 88, 84, 22, 37, 33, 87, 66, 30, 24 |
     30, 42, 52, 5, 50, 60, 16, 29, 3, 24, 36, 30, 59, 49, 67, 52, 44, 71, 13, 39 |];

mc = [| 2, 20, 1, 12, 8, 19, 4, 17, 14, 5, 18, 3, 13, 16, 10, 6, 15, 7, 11, 9 |
      2, 17, 18, 12, 8, 20, 3, 16, 4, 7, 9, 1, 10, 11, 13, 19, 6, 5, 14, 15 |
      16, 2, 8, 17, 20, 9, 13, 7, 12, 10, 19, 15, 4, 5, 1, 14, 6, 3, 11, 18 |
      9, 12, 7, 15, 8, 18, 10, 1, 13, 19, 3, 14, 20, 17, 5, 16, 11, 6, 4, 2 |
      3, 16, 6, 17, 7, 18, 1, 9, 14, 19, 5, 12, 11, 15, 8, 13, 10, 4, 2, 20 |
      5, 18, 12, 7, 11, 17, 10, 6, 19, 2, 20, 9, 3, 8, 14, 4, 13, 1, 15, 16 |
      10, 8, 13, 4, 9, 15, 7, 2, 20, 18, 17, 6, 19, 3, 14, 5, 1, 12, 16, 11 |
      20, 5, 11, 2, 19, 8, 17, 4, 6, 7, 16, 9, 14, 1, 18, 13, 3, 15, 12, 10 |
      16, 11, 2, 18, 9, 1, 13, 4, 15, 6, 14, 10, 12, 7, 20, 17, 8, 5, 3, 19 |
      1, 20, 9, 16, 6, 19, 10, 4, 14, 15, 3, 8, 12, 5, 13, 11, 18, 2, 7, 17 |
      20, 1, 8, 19, 15, 12, 2, 5, 10, 4, 9, 7, 17, 13, 3, 18, 11, 16, 14, 6 |
      8, 19, 4, 13, 1, 11, 18, 15, 12, 6, 16, 20, 2, 9, 3, 14, 17, 10, 7, 5 |
      12, 5, 13, 14, 15, 4, 9, 3, 16, 2, 17, 18, 8, 7, 19, 1, 20, 11, 10, 6 |
      9, 12, 13, 17, 10, 4, 19, 18, 14, 16, 6, 5, 15, 7, 8, 3, 2, 20, 11, 1 |
      5, 10, 1, 6, 20, 2, 16, 14, 17, 9, 19, 8, 4, 18, 3, 11, 12, 13, 7, 15 |
      20, 6, 17, 3, 4, 14, 7, 13, 19, 12, 1, 16, 5, 9, 18, 15, 10, 2, 11, 8 |
      4, 7, 5, 15, 13, 10, 16, 6, 19, 3, 9, 2, 17, 18, 8, 14, 12, 1, 20, 11 |
      2, 7, 20, 3, 15, 13, 10, 11, 16, 5, 14, 1, 8, 18, 17, 4, 6, 12, 9, 19 |
      6, 4, 10, 20, 1, 3, 16, 15, 2, 17, 19, 8, 9, 12, 7, 5, 18, 14, 11, 13 |
      14, 6, 17, 15, 11, 9, 3, 13, 10, 2, 19, 16, 12, 4, 7, 8, 20, 18, 1, 5 |
      9, 17, 1, 13, 12, 16, 11, 20, 3, 10, 5, 19, 8, 14, 6, 2, 4, 18, 15, 7 |
      4, 7, 5, 12, 2, 20, 18, 13, 11, 8, 16, 1, 9, 6, 3, 19, 14, 15, 17, 10 |
      18, 12, 19, 20, 13, 5, 6, 3, 9, 8, 1, 16, 2, 4, 11, 7, 17, 10, 14, 15 |
      10, 20, 14, 16, 8, 15, 12, 11, 5, 13, 4, 6, 1, 7, 3, 18, 19, 2, 9, 17 |
      18, 8, 4, 12, 3, 5, 16, 9, 1, 6, 14, 13, 11, 19, 7, 17, 10, 20, 2, 15 |
      12, 4, 11, 1, 13, 9, 17, 14, 5, 8, 2, 7, 20, 18, 10, 16, 6, 19, 15, 3 |
      20, 11, 19, 2, 4, 1, 10, 13, 3, 12, 17, 14, 5, 8, 16, 6, 18, 9, 7, 15 |
      8, 16, 2, 3, 18, 13, 10, 14, 7, 4, 9, 1, 17, 19, 11, 6, 15, 5, 20, 12 |
      9, 11, 14, 5, 12, 8, 10, 15, 17, 19, 7, 13, 20, 4, 1, 2, 3, 16, 18, 6 |
      17, 4, 19, 5, 9, 18, 1, 2, 13, 8, 6, 7, 20, 14, 10, 12, 15, 16, 11, 3 |
      14, 11, 8, 5, 16, 7, 13, 6, 12, 18, 4, 3, 15, 17, 9, 10, 1, 2, 20, 19 |
      10, 3, 19, 14, 15, 20, 9, 11, 13, 6, 18, 5, 8, 4, 17, 2, 16, 1, 12, 7 |
      2, 7, 11, 16, 19, 3, 5, 6, 15, 10, 17, 1, 9, 8, 18, 13, 14, 20, 4, 12 |
      16, 20, 11, 12, 4, 14, 10, 5, 18, 9, 1, 19, 7, 17, 13, 15, 2, 8, 3, 6 |
      5, 12, 10, 7, 9, 20, 17, 13, 16, 19, 6, 8, 14, 4, 15, 18, 3, 1, 2, 11 |
      2, 16, 8, 11, 5, 18, 3, 9, 12, 1, 10, 15, 20, 4, 6, 17, 13, 7, 19, 14 |
      18, 1, 7, 16, 11, 5, 12, 2, 8, 3, 15, 17, 10, 20, 9, 19, 6, 4, 14, 13 |
      1, 4, 2, 17, 16, 20, 14, 8, 13, 7, 19, 6, 11, 10, 3, 18, 9, 12, 15, 5 |
      1, 9, 19, 14, 16, 6, 20, 11, 2, 5, 7, 12, 13, 15, 3, 4, 8, 10, 18, 17 |
      11, 2, 8, 12, 13, 18, 5, 14, 3, 6, 16, 1, 15, 7, 19, 20, 17, 4, 10, 9 |
      19, 15, 3, 5, 1, 18, 20, 6, 16, 11, 8, 14, 13, 4, 17, 9, 10, 2, 12, 7 |
      9, 14, 17, 7, 18, 5, 20, 1, 8, 4, 3, 19, 11, 10, 2, 13, 12, 6, 15, 16 |
      12, 8, 4, 13, 18, 7, 11, 9, 6, 20, 10, 5, 19, 1, 3, 2, 16, 14, 17, 15 |
      3, 18, 4, 1, 14, 2, 19, 7, 13, 10, 17, 9, 11, 8, 5, 20, 6, 15, 16, 12 |
      19, 18, 17, 2, 7, 15, 4, 8, 3, 13, 12, 9, 1, 11, 6, 14, 20, 5, 16, 10 |
      11, 4, 2, 19, 14, 13, 20, 8, 3, 15, 16, 12, 10, 5, 6, 9, 17, 7, 18, 1 |
      11, 20, 1, 3, 14, 2, 17, 15, 4, 18, 12, 19, 5, 13, 6, 10, 7, 16, 9, 8 |
      18, 7, 20, 19, 12, 2, 5, 1, 15, 10, 16, 6, 8, 9, 11, 14, 3, 13, 4, 17 |
      1, 15, 5, 10, 12, 4, 7, 11, 13, 20, 9, 18, 2, 19, 14, 8, 16, 17, 3, 6 |
      11, 19, 16, 1, 9, 13, 8, 2, 15, 10, 7, 5, 6, 17, 12, 4, 20, 18, 14, 3 |
      18, 9, 15, 8, 3, 10, 2, 7, 6, 13, 4, 17, 5, 19, 16, 12, 20, 11, 14, 1 |
      13, 2, 5, 9, 3, 10, 4, 6, 17, 12, 14, 15, 7, 16, 20, 8, 19, 18, 1, 11 |
      9, 1, 2, 4, 3, 14, 19, 11, 5, 20, 8, 10, 12, 7, 16, 18, 15, 17, 13, 6 |
      2, 15, 13, 6, 11, 9, 10, 16, 7, 14, 1, 3, 18, 17, 4, 12, 20, 19, 8, 5 |
      1, 12, 15, 3, 8, 11, 5, 20, 7, 4, 19, 14, 16, 13, 10, 18, 17, 2, 6, 9 |
      16, 13, 6, 19, 4, 5, 14, 12, 1, 18, 7, 3, 20, 17, 2, 11, 9, 8, 10, 15 |
      3, 13, 1, 19, 15, 5, 8, 4, 14, 10, 7, 6, 2, 9, 20, 17, 11, 12, 16, 18 |
      12, 11, 16, 17, 14, 4, 15, 3, 10, 13, 1, 18, 19, 9, 2, 7, 20, 6, 8, 5 |
      18, 16, 15, 2, 13, 11, 5, 6, 20, 3, 19, 7, 4, 8, 17, 9, 1, 10, 14, 12 |
      13, 19, 2, 18, 11, 6, 7, 1, 12, 10, 5, 14, 16, 20, 17, 9, 8, 15, 4, 3 |
      7, 8, 11, 20, 10, 17, 18, 19, 6, 12, 13, 1, 15, 9, 2, 14, 16, 3, 5, 4 |
      17, 11, 20, 1, 19, 6, 9, 5, 10, 4, 13, 12, 3, 15, 16, 14, 18, 2, 7, 8 |
      1, 4, 16, 6, 11, 18, 15, 3, 12, 7, 9, 14, 8, 20, 10, 5, 19, 13, 2, 17 |
      5, 9, 14, 11, 8, 18, 20, 2, 4, 15, 16, 17, 7, 6, 12, 19, 10, 3, 13, 1 |
      17, 14, 20, 3, 11, 2, 16, 10, 1, 7, 6, 8, 15, 5, 13, 4, 9, 12, 18, 19 |
      18, 6, 1, 8, 20, 5, 16, 2, 11, 12, 4, 15, 14, 17, 7, 19, 9, 10, 3, 13 |
      17, 14, 9, 1, 19, 15, 18, 11, 5, 2, 4, 12, 10, 13, 16, 6, 8, 20, 3, 7 |
      14, 19, 3, 6, 11, 8, 5, 15, 4, 13, 20, 9, 1, 18, 16, 7, 10, 17, 2, 12 |
      16, 19, 6, 2, 5, 20, 17, 14, 12, 11, 13, 1, 18, 3, 8, 7, 15, 10, 9, 4 |
      18, 12, 4, 19, 8, 3, 17, 15, 11, 9, 10, 13, 14, 7, 2, 5, 1, 16, 6, 20 |
      5, 11, 16, 3, 9, 10, 14, 7, 15, 19, 17, 12, 1, 6, 20, 8, 4, 2, 13, 18 |
      20, 13, 6, 5, 17, 16, 7, 9, 3, 19, 14, 12, 2, 18, 11, 4, 15, 8, 10, 1 |
      14, 13, 5, 17, 15, 19, 18, 8, 2, 10, 9, 4, 16, 20, 6, 3, 12, 1, 11, 7 |
      6, 20, 9, 12, 15, 5, 8, 19, 16, 2, 17, 18, 3, 11, 14, 1, 13, 4, 7, 10 |
      15, 18, 1, 14, 8, 4, 6, 3, 19, 10, 11, 13, 2, 17, 7, 9, 20, 16, 12, 5 |
      6, 13, 4, 1, 12, 16, 17, 15, 3, 8, 11, 19, 10, 2, 20, 5, 7, 9, 14, 18 |
      4, 16, 3, 18, 13, 14, 15, 10, 5, 11, 9, 19, 1, 20, 8, 12, 17, 7, 6, 2 |
      11, 1, 20, 2, 5, 13, 19, 7, 18, 10, 6, 12, 9, 15, 4, 16, 14, 17, 3, 8 |
      6, 19, 4, 7, 12, 1, 15, 20, 11, 5, 17, 3, 18, 9, 16, 2, 10, 13, 14, 8 |
      5, 16, 8, 9, 1, 14, 15, 2, 17, 20, 10, 3, 11, 7, 13, 12, 6, 4, 19, 18 |
      18, 13, 16, 4, 14, 2, 12, 15, 1, 19, 20, 10, 7, 3, 6, 11, 9, 17, 5, 8 |
      10, 20, 5, 14, 15, 16, 11, 17, 12, 8, 7, 3, 13, 4, 9, 19, 6, 18, 1, 2 |
      9, 20, 11, 2, 6, 12, 16, 15, 14, 8, 1, 5, 13, 4, 18, 19, 7, 10, 3, 17 |
      2, 6, 5, 4, 15, 7, 13, 14, 18, 10, 17, 20, 16, 8, 11, 1, 3, 9, 19, 12 |
      20, 6, 15, 11, 8, 19, 13, 1, 3, 10, 18, 7, 2, 16, 9, 14, 4, 12, 17, 5 |
      10, 11, 19, 15, 5, 17, 4, 12, 14, 20, 8, 1, 3, 2, 6, 13, 7, 16, 9, 18 |
      6, 2, 8, 13, 14, 4, 18, 5, 9, 16, 10, 7, 17, 12, 11, 20, 1, 15, 3, 19 |
      2, 11, 17, 18, 13, 3, 14, 15, 7, 1, 16, 5, 9, 8, 4, 10, 20, 6, 19, 12 |
      2, 17, 7, 18, 9, 15, 6, 19, 12, 4, 10, 16, 13, 20, 5, 3, 8, 11, 1, 14 |
      14, 15, 11, 20, 1, 13, 8, 10, 17, 16, 19, 5, 3, 6, 18, 12, 2, 4, 9, 7 |
      11, 1, 6, 9, 14, 18, 13, 10, 15, 17, 12, 7, 8, 16, 19, 5, 20, 4, 2, 3 |
      7, 16, 14, 1, 15, 20, 17, 5, 9, 12, 2, 8, 10, 6, 13, 18, 11, 3, 19, 4 |
      18, 7, 2, 20, 11, 8, 9, 5, 10, 6, 3, 16, 14, 15, 12, 13, 1, 19, 17, 4 |
      19, 15, 13, 17, 6, 5, 4, 10, 16, 12, 9, 2, 18, 3, 14, 1, 11, 8, 20, 7 |
      3, 10, 12, 9, 14, 13, 20, 16, 4, 17, 1, 2, 5, 8, 6, 7, 19, 18, 11, 15 |
      14, 18, 10, 15, 19, 5, 2, 17, 16, 6, 20, 4, 1, 12, 13, 11, 8, 7, 3, 9 |
      20, 1, 16, 11, 8, 5, 19, 4, 12, 7, 13, 9, 2, 3, 15, 18, 10, 17, 6, 14 |
      10, 1, 7, 4, 12, 15, 11, 6, 2, 13, 8, 16, 5, 3, 9, 17, 20, 14, 19, 18 |
      19, 6, 13, 2, 7, 11, 14, 17, 10, 5, 12, 8, 16, 9, 18, 20, 3, 4, 15, 1 |
      3, 16, 13, 19, 14, 12, 1, 20, 17, 4, 10, 18, 9, 15, 5, 11, 7, 2, 8, 6 |];
