n = 20;
m = 20;

d = [| 23, 89, 51, 67, 48, 45, 41, 36, 76, 61, 44, 37, 47, 91, 90, 4, 71, 58, 68, 71 |
     21, 61, 2, 91, 80, 22, 94, 32, 79, 38, 67, 11, 84, 85, 4, 56, 34, 89, 80, 29 |
     7, 45, 88, 2, 68, 13, 63, 34, 67, 83, 84, 83, 22, 15, 25, 6, 60, 87, 50, 2 |
     29, 81, 86, 91, 67, 99, 38, 77, 98, 90, 27, 77, 78, 88, 60, 55, 38, 20, 15, 37 |
     94, 44, 80, 18, 56, 60, 81, 51, 53, 92, 76, 55, 69, 17, 30, 3, 5, 96, 29, 36 |
     98, 67, 14, 33, 72, 61, 34, 56, 78, 78, 93, 6, 26, 94, 24, 2, 78, 32, 58, 86 |
     56, 98, 18, 65, 63, 96, 74, 23, 84, 78, 99, 25, 25, 12, 31, 21, 71, 95, 75, 99 |
     99, 5, 41, 17, 63, 54, 30, 89, 70, 14, 97, 82, 4, 42, 17, 14, 88, 93, 38, 45 |
     70, 26, 27, 86, 55, 56, 34, 31, 64, 56, 42, 41, 15, 3, 96, 54, 65, 9, 90, 63 |
     11, 19, 6, 58, 15, 2, 19, 88, 40, 35, 55, 38, 20, 76, 45, 13, 82, 6, 74, 95 |
     28, 98, 67, 12, 41, 64, 1, 10, 65, 45, 34, 16, 47, 38, 42, 50, 19, 48, 60, 11 |
     2, 74, 86, 33, 20, 97, 84, 91, 22, 90, 97, 54, 63, 77, 5, 82, 16, 72, 4, 84 |
     91, 27, 30, 46, 28, 91, 96, 29, 15, 68, 92, 36, 64, 69, 46, 99, 81, 15, 1, 5 |
     35, 19, 68, 10, 38, 25, 10, 49, 43, 94, 34, 69, 89, 29, 49, 87, 63, 59, 9, 19 |
     76, 38, 20, 48, 26, 80, 92, 98, 11, 3, 40, 5, 9, 60, 99, 62, 67, 51, 61, 9 |
     7, 29, 13, 30, 59, 41, 51, 28, 16, 44, 3, 90, 49, 47, 15, 61, 60, 64, 86, 94 |
     19, 25, 95, 95, 64, 59, 45, 72, 83, 5, 40, 63, 44, 74, 31, 94, 72, 59, 68, 55 |
     93, 40, 35, 58, 34, 49, 21, 97, 5, 99, 67, 78, 30, 60, 60, 14, 44, 11, 92, 64 |
     27, 7, 77, 12, 61, 93, 13, 82, 5, 12, 53, 73, 68, 38, 28, 2, 15, 92, 38, 72 |
     34, 49, 24, 6, 97, 76, 24, 39, 14, 22, 86, 35, 36, 70, 67, 77, 40, 76, 37, 72 |];

mc = [| 10, 20, 16, 12, 7, 1, 15, 11, 5, 3, 2, 4, 14, 18, 19, 9, 6, 17, 8, 13 |
      13, 16, 3, 12, 11, 8, 2, 7, 1, 20, 5, 10, 15, 14, 9, 19, 17, 6, 4, 18 |
      7, 2, 11, 13, 1, 5, 9, 12, 4, 20, 19, 3, 10, 6, 16, 8, 17, 15, 14, 18 |
      8, 15, 16, 12, 2, 1, 17, 18, 13, 4, 6, 7, 14, 9, 11, 3, 10, 5, 20, 19 |
      2, 16, 3, 19, 6, 18, 10, 1, 5, 20, 11, 9, 8, 7, 14, 4, 17, 15, 12, 13 |
      7, 20, 1, 13, 9, 2, 3, 6, 15, 4, 11, 19, 18, 8, 17, 14, 10, 12, 5, 16 |
      18, 11, 4, 14, 20, 2, 8, 10, 15, 19, 1, 3, 17, 13, 6, 7, 16, 9, 5, 12 |
      7, 9, 13, 18, 10, 20, 1, 11, 8, 4, 16, 12, 14, 15, 2, 6, 17, 5, 3, 19 |
      19, 9, 13, 3, 8, 2, 16, 1, 15, 4, 17, 11, 12, 14, 10, 6, 5, 7, 18, 20 |
      7, 9, 11, 5, 15, 19, 10, 3, 17, 4, 13, 20, 6, 1, 12, 16, 18, 14, 8, 2 |
      17, 4, 8, 6, 18, 5, 13, 2, 12, 3, 7, 9, 16, 20, 14, 10, 15, 1, 19, 11 |
      3, 12, 20, 17, 9, 16, 19, 15, 14, 10, 11, 13, 2, 18, 7, 4, 6, 8, 5, 1 |
      8, 17, 2, 12, 14, 1, 3, 18, 5, 10, 15, 19, 6, 13, 4, 11, 16, 9, 7, 20 |
      16, 20, 1, 13, 15, 18, 11, 4, 3, 8, 19, 17, 12, 14, 2, 7, 10, 5, 6, 9 |
      8, 4, 19, 20, 12, 14, 16, 11, 2, 10, 5, 9, 13, 17, 15, 3, 6, 18, 7, 1 |
      13, 10, 2, 9, 8, 16, 17, 12, 14, 1, 11, 15, 7, 3, 18, 5, 4, 20, 6, 19 |
      9, 17, 1, 16, 11, 15, 6, 12, 19, 7, 20, 8, 14, 5, 2, 13, 18, 4, 3, 10 |
      5, 12, 11, 7, 1, 19, 18, 8, 20, 3, 4, 13, 2, 15, 10, 16, 14, 6, 9, 17 |
      14, 6, 9, 12, 20, 2, 15, 11, 13, 19, 1, 5, 8, 17, 18, 10, 3, 16, 7, 4 |
      19, 7, 6, 18, 10, 15, 1, 14, 4, 9, 11, 3, 16, 5, 20, 13, 8, 12, 17, 2 |];
