n = 100;
m = 20;

d = [| 54, 92, 6, 61, 64, 71, 57, 65, 83, 60, 60, 41, 27, 80, 62, 36, 52, 16, 63, 52 |
     20, 62, 94, 1, 66, 93, 64, 21, 82, 44, 84, 93, 67, 73, 80, 77, 4, 29, 85, 33 |
     61, 85, 89, 15, 91, 41, 63, 12, 91, 37, 56, 29, 93, 8, 67, 68, 4, 18, 29, 88 |
     11, 98, 80, 5, 45, 31, 57, 74, 21, 6, 51, 20, 81, 77, 53, 70, 9, 47, 38, 5 |
     20, 21, 81, 10, 26, 46, 35, 93, 18, 53, 13, 30, 15, 62, 4, 61, 46, 45, 91, 96 |
     46, 50, 2, 29, 23, 36, 40, 64, 44, 79, 17, 64, 69, 60, 82, 47, 73, 67, 29, 11 |
     30, 52, 60, 87, 50, 80, 11, 27, 24, 13, 52, 74, 69, 14, 59, 91, 94, 12, 18, 61 |
     62, 15, 75, 55, 37, 62, 54, 35, 36, 25, 25, 27, 88, 31, 27, 74, 53, 67, 16, 21 |
     90, 78, 3, 67, 54, 30, 19, 14, 53, 42, 8, 14, 49, 40, 78, 87, 5, 72, 82, 83 |
     54, 45, 13, 7, 60, 48, 91, 61, 46, 53, 49, 2, 39, 52, 39, 4, 83, 51, 78, 12 |
     34, 31, 67, 46, 57, 52, 31, 53, 17, 18, 42, 33, 3, 15, 11, 40, 83, 51, 27, 91 |
     44, 92, 83, 36, 29, 86, 19, 70, 69, 85, 52, 85, 62, 41, 31, 75, 67, 20, 95, 29 |
     95, 14, 1, 81, 42, 93, 13, 9, 73, 78, 8, 99, 66, 29, 50, 21, 65, 56, 42, 30 |
     70, 53, 48, 92, 59, 72, 79, 43, 10, 30, 49, 72, 99, 37, 92, 61, 77, 7, 23, 77 |
     3, 80, 74, 94, 70, 76, 27, 18, 24, 92, 77, 75, 42, 67, 64, 34, 66, 25, 34, 69 |
     45, 75, 61, 89, 47, 49, 29, 91, 82, 49, 6, 51, 74, 26, 35, 90, 33, 73, 53, 55 |
     65, 68, 66, 44, 97, 83, 14, 29, 81, 12, 28, 14, 61, 93, 90, 31, 77, 67, 3, 23 |
     11, 46, 39, 47, 39, 5, 26, 58, 55, 6, 61, 4, 51, 88, 28, 86, 53, 95, 25, 45 |
     16, 45, 3, 93, 58, 63, 59, 49, 60, 63, 60, 2, 30, 68, 40, 77, 8, 1, 46, 10 |
     26, 43, 83, 66, 9, 66, 30, 26, 51, 29, 16, 77, 82, 52, 11, 76, 31, 30, 26, 23 |
     27, 17, 97, 40, 67, 47, 92, 3, 77, 72, 70, 84, 78, 16, 60, 82, 38, 66, 73, 41 |
     63, 29, 2, 71, 28, 82, 47, 61, 22, 54, 5, 19, 31, 28, 14, 96, 22, 44, 58, 97 |
     37, 79, 43, 7, 89, 90, 79, 58, 98, 58, 34, 75, 89, 73, 33, 10, 90, 48, 4, 14 |
     50, 92, 94, 13, 62, 5, 4, 21, 87, 48, 15, 7, 34, 92, 53, 44, 54, 81, 88, 40 |
     23, 72, 70, 2, 17, 50, 57, 52, 7, 71, 45, 40, 3, 20, 45, 17, 81, 59, 80, 35 |
     56, 54, 28, 43, 5, 98, 99, 21, 96, 91, 16, 29, 40, 50, 31, 37, 76, 97, 36, 7 |
     61, 18, 73, 74, 80, 52, 48, 31, 44, 80, 99, 87, 22, 45, 62, 63, 15, 57, 52, 49 |
     84, 17, 55, 99, 52, 43, 82, 70, 75, 40, 42, 64, 67, 47, 93, 45, 53, 80, 54, 38 |
     76, 12, 81, 3, 45, 36, 54, 31, 90, 54, 98, 83, 86, 69, 3, 62, 89, 23, 41, 11 |
     70, 73, 72, 46, 36, 36, 42, 53, 29, 51, 18, 81, 12, 49, 23, 50, 37, 64, 15, 18 |
     22, 47, 71, 84, 87, 90, 75, 47, 57, 13, 33, 28, 68, 52, 73, 17, 38, 80, 8, 18 |
     65, 85, 36, 4, 84, 99, 10, 76, 15, 77, 54, 90, 25, 61, 51, 39, 42, 26, 94, 34 |
     69, 52, 42, 45, 96, 75, 33, 9, 79, 2, 3, 15, 15, 7, 76, 98, 38, 46, 26, 7 |
     33, 99, 84, 87, 3, 47, 59, 95, 73, 78, 32, 68, 65, 43, 66, 37, 39, 40, 69, 73 |
     15, 42, 98, 98, 51, 97, 22, 54, 52, 79, 47, 71, 82, 39, 2, 6, 50, 36, 92, 20 |
     32, 58, 89, 57, 89, 47, 68, 59, 72, 1, 54, 30, 31, 97, 96, 17, 30, 43, 5, 85 |
     26, 95, 82, 50, 26, 39, 44, 90, 79, 39, 45, 42, 30, 88, 73, 48, 92, 57, 41, 31 |
     9, 68, 72, 62, 34, 40, 51, 34, 79, 12, 46, 41, 78, 69, 51, 51, 15, 47, 82, 94 |
     14, 67, 88, 30, 98, 25, 90, 65, 98, 87, 49, 65, 71, 94, 26, 91, 57, 49, 30, 2 |
     56, 48, 74, 60, 94, 64, 71, 38, 6, 46, 40, 51, 1, 43, 16, 46, 46, 28, 93, 63 |
     33, 9, 45, 64, 11, 93, 57, 4, 92, 72, 26, 81, 61, 17, 75, 44, 19, 13, 62, 66 |
     23, 42, 37, 63, 59, 46, 26, 6, 89, 49, 18, 22, 60, 90, 66, 44, 89, 88, 60, 94 |
     73, 37, 4, 62, 22, 39, 40, 84, 67, 37, 46, 23, 50, 71, 54, 52, 55, 16, 64, 62 |
     82, 41, 17, 73, 74, 8, 17, 3, 25, 12, 86, 99, 43, 13, 90, 74, 66, 46, 3, 90 |
     78, 62, 1, 41, 29, 22, 76, 93, 23, 59, 78, 81, 62, 14, 84, 71, 53, 7, 19, 70 |
     37, 84, 14, 91, 77, 15, 16, 74, 12, 38, 44, 29, 9, 36, 51, 28, 12, 30, 38, 95 |
     94, 5, 94, 14, 23, 54, 67, 82, 39, 10, 18, 98, 1, 88, 6, 88, 13, 98, 23, 58 |
     66, 52, 40, 17, 94, 47, 55, 58, 26, 78, 6, 54, 69, 27, 49, 85, 10, 65, 42, 54 |
     72, 68, 75, 36, 69, 77, 95, 5, 71, 36, 23, 80, 27, 34, 64, 90, 94, 40, 85, 96 |
     87, 86, 16, 19, 4, 6, 8, 45, 92, 63, 77, 26, 3, 15, 92, 59, 14, 2, 98, 57 |
     38, 88, 91, 36, 9, 5, 23, 84, 88, 14, 39, 25, 50, 69, 50, 8, 64, 24, 48, 38 |
     37, 50, 48, 4, 46, 89, 25, 67, 31, 56, 56, 95, 45, 26, 9, 45, 25, 50, 89, 51 |
     37, 81, 92, 95, 86, 11, 20, 54, 37, 63, 75, 67, 27, 74, 96, 86, 68, 55, 91, 19 |
     77, 48, 98, 95, 92, 14, 41, 30, 7, 33, 3, 34, 27, 80, 12, 82, 53, 8, 65, 32 |
     78, 20, 32, 11, 94, 88, 4, 83, 95, 46, 15, 21, 91, 7, 93, 91, 7, 23, 97, 42 |
     13, 8, 5, 86, 57, 4, 76, 49, 78, 68, 79, 43, 20, 14, 7, 53, 99, 89, 35, 35 |
     41, 47, 47, 43, 67, 16, 75, 56, 95, 27, 24, 93, 16, 59, 30, 11, 59, 81, 35, 59 |
     7, 20, 49, 2, 55, 39, 45, 37, 4, 66, 7, 50, 91, 43, 12, 24, 76, 74, 62, 95 |
     94, 95, 55, 70, 79, 95, 86, 79, 20, 82, 50, 30, 10, 32, 99, 79, 18, 82, 47, 84 |
     8, 71, 75, 20, 9, 37, 2, 62, 6, 86, 97, 32, 50, 45, 1, 98, 98, 91, 53, 99 |
     43, 42, 78, 71, 60, 57, 52, 76, 89, 1, 94, 14, 46, 11, 17, 11, 14, 72, 44, 14 |
     14, 61, 4, 45, 85, 86, 31, 92, 60, 34, 40, 11, 63, 94, 92, 30, 12, 81, 76, 76 |
     80, 25, 30, 87, 58, 61, 11, 88, 9, 69, 94, 92, 60, 23, 47, 72, 58, 6, 36, 35 |
     13, 19, 72, 55, 57, 27, 29, 47, 66, 60, 29, 26, 41, 92, 5, 2, 59, 56, 65, 56 |
     40, 68, 87, 26, 36, 54, 60, 98, 26, 62, 48, 81, 81, 15, 20, 86, 9, 22, 45, 97 |
     65, 25, 86, 30, 26, 73, 54, 47, 94, 99, 59, 27, 52, 85, 2, 59, 90, 23, 28, 1 |
     27, 19, 20, 92, 45, 52, 36, 50, 5, 45, 62, 21, 26, 86, 12, 64, 57, 93, 99, 73 |
     5, 84, 42, 91, 30, 10, 85, 42, 68, 90, 65, 18, 21, 78, 64, 77, 47, 38, 93, 7 |
     26, 13, 96, 88, 27, 44, 32, 98, 52, 26, 35, 16, 30, 28, 70, 86, 65, 37, 45, 99 |
     29, 18, 42, 31, 94, 38, 74, 82, 3, 68, 88, 84, 90, 61, 84, 56, 38, 49, 55, 23 |
     46, 39, 29, 52, 50, 44, 97, 5, 8, 90, 68, 98, 73, 53, 23, 70, 56, 82, 62, 46 |
     81, 87, 8, 70, 44, 3, 80, 30, 17, 41, 86, 98, 34, 19, 46, 73, 81, 21, 56, 31 |
     36, 74, 85, 21, 60, 43, 88, 90, 36, 15, 23, 43, 39, 55, 25, 49, 65, 67, 43, 52 |
     93, 57, 28, 32, 50, 36, 90, 91, 63, 99, 82, 78, 34, 46, 51, 23, 90, 86, 82, 62 |
     81, 74, 39, 50, 68, 39, 18, 33, 73, 73, 38, 87, 37, 88, 24, 28, 24, 71, 82, 21 |
     96, 98, 95, 14, 18, 57, 17, 6, 84, 17, 98, 22, 79, 39, 19, 55, 91, 79, 67, 75 |
     44, 6, 14, 47, 47, 73, 7, 66, 30, 63, 62, 1, 14, 66, 19, 86, 47, 25, 54, 39 |
     10, 37, 36, 6, 15, 87, 32, 65, 64, 32, 13, 13, 88, 30, 84, 13, 82, 47, 39, 77 |
     39, 56, 93, 29, 74, 18, 76, 80, 38, 19, 15, 61, 73, 37, 56, 15, 33, 91, 21, 10 |
     7, 25, 64, 97, 79, 31, 4, 2, 63, 49, 65, 50, 20, 78, 1, 86, 43, 74, 30, 6 |
     87, 41, 93, 1, 22, 37, 23, 69, 50, 20, 57, 45, 48, 91, 42, 49, 38, 24, 84, 46 |
     50, 5, 84, 59, 77, 69, 12, 79, 82, 23, 13, 23, 8, 91, 28, 55, 1, 80, 92, 92 |
     25, 82, 86, 9, 71, 6, 57, 68, 23, 37, 7, 88, 87, 17, 69, 11, 74, 84, 11, 47 |
     97, 28, 22, 1, 70, 15, 79, 13, 55, 87, 64, 15, 75, 22, 13, 11, 21, 79, 88, 40 |
     46, 39, 13, 31, 4, 93, 16, 55, 74, 78, 42, 91, 70, 76, 81, 47, 88, 67, 73, 79 |
     53, 50, 56, 12, 60, 92, 68, 26, 21, 37, 14, 22, 94, 28, 35, 14, 23, 28, 69, 92 |
     83, 6, 76, 11, 26, 71, 50, 76, 75, 83, 1, 90, 38, 31, 64, 91, 60, 79, 30, 15 |
     38, 9, 32, 15, 24, 6, 18, 97, 12, 7, 43, 62, 53, 86, 86, 8, 14, 25, 43, 94 |
     23, 16, 52, 43, 96, 71, 42, 21, 66, 87, 91, 46, 7, 95, 35, 69, 27, 68, 42, 22 |
     51, 70, 77, 38, 90, 79, 81, 61, 17, 91, 52, 31, 4, 41, 40, 30, 76, 89, 47, 74 |
     23, 58, 63, 64, 37, 18, 23, 52, 83, 60, 43, 8, 98, 12, 56, 54, 64, 92, 94, 64 |
     87, 48, 69, 35, 42, 69, 69, 25, 7, 91, 62, 80, 52, 61, 57, 38, 85, 4, 24, 63 |
     62, 27, 30, 70, 25, 41, 61, 72, 98, 50, 23, 10, 16, 52, 89, 72, 23, 63, 11, 89 |
     54, 16, 35, 74, 9, 32, 47, 80, 61, 14, 94, 87, 62, 25, 17, 90, 55, 69, 61, 22 |
     15, 26, 1, 63, 16, 41, 26, 42, 59, 85, 66, 91, 95, 62, 87, 9, 35, 26, 25, 46 |
     29, 33, 38, 13, 62, 8, 37, 96, 19, 3, 79, 84, 14, 53, 95, 31, 92, 41, 9, 94 |
     35, 6, 26, 1, 77, 16, 66, 16, 33, 3, 5, 90, 49, 32, 74, 94, 56, 62, 94, 69 |
     24, 19, 95, 72, 94, 58, 16, 9, 7, 31, 47, 94, 34, 47, 83, 98, 69, 4, 69, 92 |
     4, 70, 22, 87, 81, 36, 65, 69, 26, 7, 34, 13, 48, 69, 67, 25, 68, 52, 75, 39 |
     52, 95, 18, 96, 69, 76, 35, 25, 56, 83, 61, 96, 20, 48, 32, 68, 8, 18, 20, 88 |];

mc = [| 20, 9, 12, 1, 7, 19, 5, 18, 3, 11, 16, 10, 6, 4, 15, 13, 2, 17, 8, 14 |
      10, 12, 15, 8, 5, 1, 13, 19, 9, 16, 11, 4, 14, 7, 3, 6, 2, 20, 18, 17 |
      5, 14, 6, 2, 7, 12, 13, 1, 9, 3, 18, 10, 19, 20, 16, 8, 15, 17, 11, 4 |
      13, 9, 1, 2, 8, 6, 5, 11, 17, 15, 10, 3, 18, 14, 16, 12, 4, 20, 19, 7 |
      4, 2, 15, 12, 7, 17, 10, 13, 9, 18, 3, 1, 20, 5, 14, 19, 16, 11, 8, 6 |
      6, 5, 14, 17, 16, 1, 12, 2, 19, 9, 20, 8, 4, 10, 13, 3, 7, 15, 11, 18 |
      7, 6, 9, 17, 1, 4, 8, 11, 19, 10, 2, 18, 12, 14, 3, 13, 20, 15, 16, 5 |
      2, 16, 18, 9, 6, 11, 12, 3, 4, 10, 13, 8, 19, 15, 14, 17, 20, 1, 7, 5 |
      14, 5, 15, 3, 19, 18, 10, 7, 2, 16, 11, 13, 1, 12, 9, 17, 4, 8, 6, 20 |
      5, 1, 4, 15, 3, 16, 7, 10, 13, 11, 18, 17, 14, 6, 12, 9, 19, 8, 20, 2 |
      10, 14, 7, 12, 9, 2, 3, 11, 17, 16, 18, 1, 5, 6, 20, 15, 8, 13, 4, 19 |
      7, 1, 13, 14, 16, 9, 17, 18, 8, 6, 20, 12, 19, 10, 2, 11, 4, 5, 15, 3 |
      5, 7, 6, 4, 2, 14, 16, 17, 12, 18, 11, 9, 15, 3, 8, 1, 20, 10, 19, 13 |
      5, 17, 12, 10, 15, 13, 7, 1, 20, 9, 8, 2, 16, 3, 19, 4, 11, 18, 14, 6 |
      9, 16, 10, 18, 3, 13, 4, 8, 1, 2, 19, 17, 12, 11, 6, 5, 20, 15, 14, 7 |
      1, 14, 17, 18, 6, 11, 13, 8, 4, 10, 7, 9, 15, 2, 16, 5, 3, 20, 12, 19 |
      14, 8, 11, 1, 5, 4, 17, 20, 18, 9, 2, 10, 6, 3, 16, 12, 15, 7, 13, 19 |
      13, 19, 2, 9, 14, 8, 15, 18, 17, 1, 7, 12, 5, 20, 16, 10, 4, 6, 11, 3 |
      4, 6, 18, 13, 17, 5, 10, 2, 19, 15, 3, 11, 8, 12, 14, 7, 9, 16, 20, 1 |
      5, 15, 17, 4, 2, 10, 14, 9, 20, 19, 8, 3, 16, 1, 6, 13, 18, 7, 12, 11 |
      6, 17, 5, 3, 15, 18, 14, 11, 8, 9, 12, 2, 20, 7, 4, 16, 13, 19, 10, 1 |
      11, 8, 1, 12, 9, 14, 18, 2, 20, 10, 19, 16, 17, 6, 3, 5, 15, 7, 13, 4 |
      1, 6, 7, 19, 16, 14, 20, 9, 2, 11, 18, 5, 12, 15, 3, 4, 8, 17, 13, 10 |
      10, 6, 19, 20, 15, 14, 11, 13, 9, 17, 7, 16, 4, 2, 5, 12, 3, 1, 18, 8 |
      5, 16, 11, 18, 9, 20, 17, 12, 19, 6, 3, 8, 1, 13, 7, 14, 2, 15, 10, 4 |
      20, 9, 15, 17, 2, 16, 19, 14, 12, 10, 6, 3, 5, 18, 13, 1, 4, 8, 7, 11 |
      3, 9, 6, 2, 1, 10, 11, 15, 12, 17, 19, 14, 5, 7, 4, 13, 16, 20, 18, 8 |
      17, 3, 14, 15, 13, 16, 7, 4, 11, 20, 19, 12, 8, 2, 5, 9, 1, 6, 10, 18 |
      17, 12, 19, 15, 8, 1, 7, 10, 16, 14, 18, 20, 4, 9, 5, 6, 3, 2, 11, 13 |
      9, 3, 15, 7, 19, 12, 13, 17, 6, 2, 4, 1, 18, 20, 5, 10, 14, 16, 8, 11 |
      5, 17, 11, 2, 12, 19, 13, 20, 9, 4, 1, 14, 6, 15, 8, 10, 18, 16, 3, 7 |
      4, 1, 10, 16, 9, 6, 20, 14, 3, 5, 19, 2, 15, 12, 8, 11, 18, 7, 13, 17 |
      3, 20, 2, 8, 18, 4, 19, 17, 11, 14, 9, 15, 16, 5, 10, 1, 13, 12, 6, 7 |
      5, 18, 10, 12, 16, 4, 14, 2, 19, 7, 9, 20, 3, 13, 6, 1, 15, 8, 17, 11 |
      1, 18, 11, 4, 7, 13, 10, 15, 17, 19, 3, 9, 8, 5, 16, 2, 20, 6, 12, 14 |
      4, 2, 5, 6, 9, 1, 7, 17, 20, 19, 18, 14, 16, 3, 13, 15, 11, 8, 10, 12 |
      20, 5, 17, 13, 6, 11, 10, 9, 1, 18, 7, 19, 12, 8, 15, 3, 4, 2, 16, 14 |
      14, 11, 8, 12, 2, 3, 6, 10, 17, 5, 1, 9, 20, 15, 4, 16, 7, 13, 19, 18 |
      13, 11, 15, 9, 20, 7, 12, 18, 19, 4, 8, 2, 16, 6, 17, 1, 5, 14, 3, 10 |
      17, 6, 8, 4, 19, 16, 11, 20, 15, 10, 5, 14, 12, 1, 3, 7, 2, 18, 9, 13 |
      6, 12, 14, 10, 9, 13, 17, 7, 19, 3, 11, 20, 2, 18, 4, 8, 1, 15, 5, 16 |
      4, 17, 20, 19, 8, 16, 9, 1, 6, 5, 14, 13, 12, 11, 18, 7, 15, 3, 10, 2 |
      2, 12, 3, 7, 20, 11, 9, 4, 1, 8, 10, 13, 6, 18, 19, 14, 5, 16, 15, 17 |
      5, 17, 11, 14, 2, 7, 6, 15, 16, 3, 19, 12, 8, 13, 1, 20, 18, 4, 9, 10 |
      16, 18, 15, 8, 12, 10, 4, 1, 6, 7, 5, 20, 17, 14, 3, 9, 2, 11, 19, 13 |
      19, 15, 2, 18, 14, 10, 6, 4, 16, 8, 17, 5, 20, 13, 7, 1, 3, 12, 9, 11 |
      5, 10, 1, 2, 16, 20, 14, 6, 15, 11, 18, 3, 17, 7, 19, 12, 9, 8, 4, 13 |
      11, 8, 10, 9, 4, 3, 6, 19, 18, 20, 13, 17, 15, 14, 7, 1, 5, 2, 12, 16 |
      11, 3, 8, 17, 20, 6, 4, 18, 19, 1, 10, 9, 15, 12, 5, 2, 14, 13, 16, 7 |
      11, 3, 5, 9, 15, 4, 20, 18, 14, 7, 2, 10, 17, 13, 12, 19, 1, 8, 6, 16 |
      11, 2, 3, 20, 5, 14, 9, 13, 1, 4, 6, 18, 8, 19, 12, 15, 17, 16, 7, 10 |
      16, 18, 11, 14, 1, 13, 2, 9, 10, 12, 20, 17, 15, 7, 4, 6, 19, 3, 5, 8 |
      3, 15, 8, 12, 16, 6, 5, 9, 19, 1, 4, 11, 14, 7, 13, 17, 10, 20, 18, 2 |
      11, 15, 17, 14, 1, 19, 3, 9, 12, 13, 4, 18, 7, 2, 20, 5, 6, 16, 10, 8 |
      4, 13, 19, 18, 8, 6, 20, 15, 1, 3, 12, 9, 11, 10, 17, 16, 14, 7, 5, 2 |
      6, 13, 12, 8, 9, 19, 18, 5, 7, 15, 10, 16, 2, 20, 17, 1, 3, 11, 4, 14 |
      6, 12, 1, 19, 14, 8, 20, 2, 13, 10, 11, 17, 3, 9, 15, 4, 5, 16, 18, 7 |
      18, 4, 15, 17, 6, 11, 9, 13, 2, 10, 20, 7, 14, 16, 3, 5, 19, 12, 8, 1 |
      8, 5, 14, 7, 20, 2, 3, 10, 16, 17, 9, 15, 12, 4, 13, 6, 11, 1, 19, 18 |
      17, 20, 6, 5, 18, 7, 13, 19, 14, 8, 3, 10, 15, 2, 4, 1, 16, 12, 11, 9 |
      10, 15, 7, 11, 12, 19, 4, 6, 1, 17, 3, 20, 8, 18, 9, 2, 5, 13, 16, 14 |
      3, 12, 17, 2, 15, 6, 1, 19, 10, 14, 7, 18, 20, 13, 8, 11, 9, 4, 16, 5 |
      1, 11, 10, 4, 12, 5, 15, 19, 8, 6, 3, 14, 17, 16, 18, 20, 13, 9, 7, 2 |
      19, 20, 5, 15, 8, 14, 6, 7, 1, 9, 2, 3, 10, 13, 12, 11, 16, 18, 4, 17 |
      6, 15, 19, 3, 11, 12, 10, 1, 20, 7, 17, 9, 4, 8, 2, 16, 18, 5, 13, 14 |
      12, 8, 19, 2, 14, 10, 11, 13, 17, 1, 15, 6, 20, 5, 3, 4, 7, 9, 18, 16 |
      17, 13, 3, 18, 15, 16, 2, 4, 12, 9, 1, 11, 20, 19, 8, 7, 5, 10, 6, 14 |
      8, 9, 1, 15, 18, 17, 11, 14, 12, 7, 5, 10, 6, 3, 16, 19, 2, 4, 20, 13 |
      2, 6, 1, 11, 9, 8, 5, 20, 14, 17, 19, 13, 16, 15, 4, 3, 12, 18, 10, 7 |
      15, 20, 10, 9, 17, 5, 3, 14, 13, 12, 11, 2, 4, 7, 19, 16, 6, 18, 1, 8 |
      8, 2, 9, 17, 15, 20, 10, 13, 19, 3, 5, 18, 16, 6, 14, 7, 11, 4, 12, 1 |
      15, 20, 2, 4, 3, 16, 19, 7, 11, 9, 14, 12, 6, 5, 18, 1, 10, 13, 8, 17 |
      1, 16, 19, 18, 14, 7, 6, 12, 2, 4, 15, 11, 5, 20, 13, 9, 8, 10, 17, 3 |
      8, 11, 19, 20, 16, 14, 13, 12, 10, 2, 6, 1, 17, 18, 7, 3, 5, 15, 4, 9 |
      6, 3, 12, 15, 8, 2, 9, 19, 4, 13, 7, 20, 17, 10, 11, 1, 16, 14, 5, 18 |
      9, 12, 13, 17, 8, 10, 14, 16, 19, 11, 1, 20, 6, 7, 4, 18, 15, 3, 2, 5 |
      14, 9, 2, 15, 13, 16, 6, 8, 11, 18, 10, 12, 7, 5, 17, 1, 4, 3, 19, 20 |
      19, 18, 1, 13, 15, 5, 17, 16, 12, 3, 6, 20, 8, 7, 10, 9, 4, 11, 2, 14 |
      3, 10, 17, 20, 6, 19, 5, 18, 2, 4, 13, 7, 8, 15, 12, 16, 11, 14, 9, 1 |
      3, 2, 17, 18, 13, 19, 1, 9, 6, 11, 8, 7, 14, 16, 12, 5, 10, 4, 20, 15 |
      11, 18, 16, 5, 10, 14, 17, 15, 7, 20, 2, 1, 4, 6, 8, 9, 13, 3, 12, 19 |
      11, 13, 4, 2, 17, 18, 19, 14, 10, 6, 20, 16, 3, 8, 9, 12, 5, 15, 7, 1 |
      11, 4, 7, 9, 13, 20, 18, 12, 3, 5, 15, 10, 6, 16, 19, 1, 14, 17, 2, 8 |
      3, 9, 19, 4, 1, 13, 11, 12, 8, 16, 2, 15, 10, 17, 5, 14, 18, 7, 20, 6 |
      10, 9, 7, 18, 20, 12, 13, 6, 17, 15, 14, 3, 16, 2, 19, 11, 5, 4, 1, 8 |
      18, 19, 3, 4, 16, 1, 15, 12, 10, 9, 14, 17, 5, 11, 2, 20, 6, 8, 13, 7 |
      5, 12, 6, 19, 9, 8, 7, 13, 4, 20, 17, 1, 2, 18, 16, 10, 11, 15, 3, 14 |
      6, 10, 18, 12, 13, 7, 16, 4, 20, 5, 19, 11, 2, 1, 15, 14, 17, 8, 3, 9 |
      14, 11, 2, 8, 1, 5, 18, 17, 10, 15, 16, 13, 4, 12, 20, 9, 6, 7, 3, 19 |
      15, 6, 16, 11, 13, 2, 8, 9, 14, 12, 18, 3, 4, 1, 20, 17, 19, 5, 7, 10 |
      11, 5, 15, 2, 18, 12, 10, 1, 17, 8, 6, 4, 13, 14, 20, 16, 7, 19, 9, 3 |
      19, 12, 7, 16, 11, 18, 2, 4, 10, 1, 3, 15, 13, 14, 20, 8, 9, 6, 17, 5 |
      3, 17, 5, 20, 8, 7, 18, 16, 2, 14, 4, 13, 19, 15, 11, 10, 9, 12, 6, 1 |
      17, 4, 20, 14, 13, 16, 5, 7, 3, 15, 18, 11, 2, 12, 1, 6, 8, 10, 9, 19 |
      11, 4, 5, 1, 14, 9, 19, 16, 12, 3, 17, 8, 18, 10, 13, 20, 7, 15, 6, 2 |
      2, 18, 1, 12, 6, 20, 16, 8, 4, 7, 15, 11, 14, 13, 3, 5, 17, 10, 9, 19 |
      14, 12, 18, 11, 3, 10, 7, 20, 4, 5, 2, 9, 8, 15, 16, 6, 13, 19, 17, 1 |
      12, 14, 5, 4, 2, 19, 7, 3, 11, 16, 20, 9, 8, 18, 1, 17, 10, 15, 13, 6 |
      8, 18, 2, 6, 7, 12, 5, 10, 4, 17, 9, 11, 16, 20, 15, 3, 13, 14, 1, 19 |
      8, 11, 19, 14, 16, 17, 6, 3, 2, 10, 7, 12, 18, 1, 9, 4, 5, 13, 20, 15 |];
