n = 20;
m = 20;

d = [| 52, 63, 99, 63, 19, 98, 74, 93, 45, 42, 3, 31, 33, 98, 77, 21, 64, 87, 97, 46 |
     40, 9, 81, 5, 61, 40, 41, 52, 79, 94, 3, 52, 86, 48, 98, 49, 9, 54, 94, 79 |
     68, 74, 94, 25, 46, 15, 45, 92, 51, 83, 60, 68, 80, 19, 10, 83, 31, 49, 12, 25 |
     34, 1, 73, 13, 48, 83, 6, 73, 29, 73, 63, 88, 76, 87, 71, 32, 44, 82, 71, 82 |
     89, 46, 64, 19, 47, 67, 36, 88, 55, 60, 71, 16, 72, 52, 5, 47, 41, 30, 7, 74 |
     46, 99, 27, 55, 36, 77, 2, 4, 52, 5, 80, 5, 22, 46, 9, 70, 2, 96, 44, 99 |
     14, 21, 51, 45, 62, 94, 3, 93, 45, 47, 83, 46, 81, 56, 92, 11, 63, 93, 86, 70 |
     38, 9, 53, 72, 58, 29, 10, 69, 84, 2, 58, 3, 48, 62, 41, 96, 9, 96, 72, 55 |
     47, 64, 83, 81, 46, 39, 19, 52, 82, 45, 18, 18, 23, 14, 6, 92, 70, 77, 48, 54 |
     39, 14, 66, 73, 74, 38, 82, 6, 74, 41, 89, 1, 98, 73, 1, 21, 25, 4, 99, 78 |
     74, 84, 45, 72, 52, 38, 36, 74, 72, 79, 39, 77, 3, 58, 55, 86, 4, 43, 54, 56 |
     79, 39, 35, 1, 61, 23, 22, 20, 11, 88, 21, 5, 81, 20, 81, 21, 96, 3, 77, 9 |
     1, 57, 85, 81, 13, 8, 82, 99, 65, 55, 18, 60, 37, 17, 1, 4, 88, 56, 48, 9 |
     80, 36, 96, 2, 13, 26, 1, 31, 78, 34, 64, 65, 60, 16, 36, 85, 32, 95, 23, 25 |
     19, 62, 97, 28, 49, 91, 42, 82, 81, 66, 98, 80, 28, 94, 87, 51, 88, 94, 68, 14 |
     24, 60, 28, 85, 24, 87, 98, 59, 64, 83, 99, 35, 5, 96, 19, 82, 8, 69, 87, 60 |
     31, 61, 57, 66, 11, 34, 44, 36, 46, 65, 89, 21, 82, 51, 34, 60, 25, 1, 50, 94 |
     47, 66, 76, 57, 53, 51, 35, 98, 94, 47, 10, 36, 6, 30, 45, 7, 48, 76, 90, 61 |
     36, 89, 94, 95, 76, 59, 3, 33, 64, 72, 3, 70, 76, 71, 61, 68, 80, 5, 51, 90 |
     47, 17, 31, 38, 87, 47, 1, 36, 53, 58, 14, 82, 20, 40, 96, 63, 24, 65, 36, 82 |];

mc = [| 5, 13, 11, 20, 16, 1, 14, 9, 6, 8, 4, 7, 17, 10, 15, 12, 2, 18, 19, 3 |
      19, 20, 4, 8, 1, 15, 3, 14, 18, 16, 5, 11, 9, 7, 2, 12, 13, 6, 10, 17 |
      11, 6, 8, 18, 5, 7, 3, 14, 12, 17, 19, 2, 16, 13, 9, 1, 20, 15, 10, 4 |
      2, 10, 15, 4, 16, 19, 14, 20, 3, 12, 8, 5, 6, 7, 13, 1, 17, 11, 9, 18 |
      15, 17, 13, 11, 4, 1, 5, 6, 8, 18, 9, 10, 19, 14, 16, 3, 20, 2, 12, 7 |
      4, 12, 13, 15, 9, 11, 5, 6, 16, 7, 10, 19, 3, 2, 14, 18, 1, 17, 8, 20 |
      6, 4, 2, 12, 16, 14, 3, 11, 5, 13, 19, 1, 9, 17, 20, 10, 18, 7, 15, 8 |
      11, 19, 14, 9, 10, 2, 18, 7, 20, 15, 16, 13, 8, 3, 1, 5, 6, 12, 17, 4 |
      2, 18, 9, 12, 1, 16, 19, 14, 7, 5, 4, 15, 3, 20, 8, 13, 17, 10, 6, 11 |
      3, 18, 19, 8, 15, 12, 11, 20, 1, 10, 5, 14, 17, 9, 7, 4, 2, 16, 13, 6 |
      7, 9, 8, 3, 16, 2, 14, 15, 13, 19, 5, 17, 6, 10, 18, 11, 4, 1, 12, 20 |
      20, 11, 15, 8, 18, 16, 6, 10, 3, 1, 17, 19, 13, 5, 12, 14, 2, 7, 9, 4 |
      18, 7, 19, 2, 15, 16, 9, 6, 11, 5, 17, 3, 12, 1, 10, 4, 14, 20, 8, 13 |
      14, 17, 12, 5, 11, 19, 15, 16, 3, 4, 9, 6, 20, 13, 8, 2, 7, 10, 1, 18 |
      6, 20, 15, 5, 11, 7, 9, 17, 1, 10, 2, 3, 4, 16, 14, 13, 18, 12, 8, 19 |
      5, 7, 10, 3, 2, 13, 14, 19, 17, 4, 8, 18, 20, 6, 15, 11, 16, 1, 12, 9 |
      2, 12, 7, 1, 14, 20, 10, 16, 11, 4, 13, 18, 6, 17, 5, 15, 19, 9, 8, 3 |
      19, 15, 12, 11, 13, 16, 9, 7, 5, 18, 4, 6, 20, 10, 17, 1, 8, 14, 2, 3 |
      15, 8, 4, 17, 16, 2, 13, 18, 11, 14, 1, 3, 6, 19, 5, 20, 9, 12, 7, 10 |
      1, 2, 17, 3, 5, 13, 16, 19, 10, 15, 11, 20, 18, 8, 12, 6, 14, 7, 9, 4 |];
