n = 30;
m = 15;

d = [| 25, 88, 73, 99, 25, 12, 31, 30, 73, 17, 70, 25, 31, 73, 98 |
     26, 27, 14, 83, 53, 13, 50, 39, 88, 27, 98, 57, 43, 90, 96 |
     53, 15, 15, 61, 69, 60, 44, 45, 71, 25, 60, 72, 46, 3, 84 |
     71, 74, 87, 90, 61, 90, 60, 71, 92, 81, 92, 60, 44, 66, 11 |
     17, 25, 39, 42, 37, 4, 50, 81, 90, 53, 18, 48, 41, 78, 46 |
     22, 76, 68, 84, 85, 34, 9, 23, 85, 31, 75, 21, 66, 76, 65 |
     2, 13, 20, 1, 10, 83, 30, 78, 68, 1, 18, 69, 18, 3, 29 |
     93, 71, 96, 7, 10, 19, 78, 29, 62, 15, 58, 55, 14, 49, 42 |
     3, 4, 89, 55, 25, 27, 11, 23, 62, 19, 44, 64, 47, 28, 45 |
     1, 88, 36, 4, 80, 41, 6, 86, 73, 24, 31, 55, 54, 85, 39 |
     42, 96, 7, 33, 90, 56, 32, 88, 65, 66, 5, 62, 46, 40, 39 |
     51, 8, 39, 1, 92, 39, 39, 88, 32, 58, 40, 63, 11, 52, 23 |
     29, 40, 62, 27, 53, 19, 8, 5, 21, 87, 71, 52, 14, 70, 91 |
     70, 42, 45, 35, 92, 84, 39, 85, 14, 81, 86, 22, 39, 39, 78 |
     9, 97, 49, 69, 52, 65, 90, 1, 71, 52, 81, 58, 47, 39, 32 |
     76, 14, 91, 48, 88, 62, 39, 56, 87, 54, 97, 78, 92, 12, 83 |
     94, 24, 51, 51, 19, 85, 54, 98, 99, 48, 26, 32, 5, 1, 13 |
     78, 38, 56, 9, 40, 54, 18, 88, 7, 52, 42, 14, 11, 95, 83 |
     81, 17, 15, 48, 88, 35, 65, 14, 39, 86, 18, 49, 89, 93, 30 |
     14, 47, 46, 10, 73, 81, 86, 97, 79, 34, 81, 89, 43, 1, 61 |
     32, 46, 13, 21, 65, 34, 60, 91, 5, 38, 50, 18, 64, 21, 16 |
     51, 9, 40, 82, 11, 19, 49, 68, 89, 7, 62, 45, 62, 71, 10 |
     39, 98, 56, 11, 1, 99, 18, 26, 98, 73, 54, 29, 2, 68, 90 |
     51, 9, 84, 84, 14, 42, 34, 84, 35, 54, 63, 3, 75, 99, 69 |
     68, 71, 6, 62, 8, 41, 54, 14, 77, 39, 77, 98, 60, 78, 47 |
     15, 58, 92, 36, 63, 97, 49, 51, 26, 8, 57, 1, 96, 73, 5 |
     78, 44, 38, 27, 1, 55, 67, 98, 73, 80, 73, 48, 37, 91, 71 |
     47, 52, 97, 24, 23, 67, 88, 52, 89, 74, 89, 72, 48, 21, 26 |
     62, 40, 25, 1, 4, 34, 39, 35, 59, 65, 22, 66, 64, 10, 7 |
     83, 27, 19, 48, 37, 65, 74, 57, 43, 10, 78, 11, 76, 34, 65 |];

mc = [| 2, 8, 6, 12, 15, 14, 13, 1, 11, 4, 9, 10, 7, 3, 5 |
      4, 1, 10, 14, 13, 8, 7, 3, 5, 12, 15, 11, 2, 6, 9 |
      5, 13, 3, 14, 9, 7, 4, 6, 8, 10, 11, 2, 12, 15, 1 |
      5, 9, 1, 14, 13, 12, 3, 7, 10, 6, 11, 8, 15, 4, 2 |
      7, 4, 5, 3, 1, 15, 14, 8, 13, 10, 2, 12, 11, 6, 9 |
      5, 14, 2, 6, 10, 7, 3, 11, 1, 8, 9, 4, 13, 12, 15 |
      2, 7, 9, 4, 3, 12, 14, 6, 8, 5, 1, 13, 15, 10, 11 |
      13, 14, 1, 11, 4, 9, 2, 15, 8, 7, 12, 5, 6, 3, 10 |
      3, 2, 6, 15, 13, 4, 1, 8, 14, 9, 11, 12, 10, 7, 5 |
      6, 4, 1, 14, 9, 15, 5, 11, 10, 2, 13, 3, 8, 12, 7 |
      13, 5, 10, 6, 11, 14, 4, 8, 12, 3, 7, 15, 2, 1, 9 |
      5, 4, 8, 7, 3, 2, 10, 14, 13, 1, 15, 11, 9, 6, 12 |
      12, 3, 7, 9, 2, 14, 5, 8, 6, 11, 15, 13, 4, 1, 10 |
      14, 8, 5, 3, 1, 6, 12, 11, 2, 15, 10, 7, 4, 13, 9 |
      12, 10, 13, 14, 11, 1, 2, 8, 6, 5, 7, 15, 4, 3, 9 |
      13, 5, 7, 12, 1, 6, 8, 3, 14, 4, 2, 15, 10, 11, 9 |
      15, 13, 14, 3, 6, 4, 9, 2, 5, 1, 7, 10, 12, 11, 8 |
      2, 9, 7, 10, 12, 11, 6, 3, 8, 15, 5, 14, 13, 1, 4 |
      4, 3, 14, 2, 1, 5, 8, 6, 7, 9, 10, 13, 12, 15, 11 |
      12, 14, 4, 1, 7, 3, 2, 5, 8, 11, 15, 6, 9, 10, 13 |
      1, 10, 13, 11, 7, 8, 6, 2, 9, 15, 4, 3, 12, 14, 5 |
      4, 11, 6, 7, 3, 9, 8, 13, 5, 1, 15, 12, 10, 2, 14 |
      13, 2, 7, 3, 9, 6, 4, 1, 11, 10, 14, 15, 8, 12, 5 |
      10, 5, 2, 15, 14, 1, 11, 6, 4, 8, 3, 13, 12, 7, 9 |
      9, 8, 3, 1, 4, 7, 5, 2, 14, 13, 6, 15, 12, 11, 10 |
      8, 11, 6, 7, 2, 14, 5, 4, 3, 10, 15, 9, 1, 12, 13 |
      7, 8, 3, 6, 11, 14, 10, 13, 15, 12, 4, 5, 9, 2, 1 |
      14, 11, 5, 10, 1, 6, 4, 12, 7, 3, 2, 15, 8, 13, 9 |
      7, 2, 11, 10, 15, 12, 8, 6, 5, 13, 1, 4, 9, 3, 14 |
      1, 15, 14, 7, 8, 5, 13, 4, 3, 10, 9, 12, 2, 11, 6 |];
