n = 50;
m = 20;

d = [| 54, 11, 85, 75, 82, 41, 82, 93, 30, 11, 75, 49, 99, 29, 21, 46, 79, 82, 60, 40 |
     98, 33, 36, 58, 10, 52, 58, 87, 23, 61, 29, 85, 60, 45, 59, 35, 68, 87, 51, 75 |
     40, 79, 95, 81, 84, 71, 95, 34, 56, 10, 37, 39, 21, 17, 2, 77, 55, 62, 25, 73 |
     97, 36, 82, 10, 75, 83, 37, 85, 28, 51, 78, 85, 92, 15, 66, 72, 35, 93, 91, 99 |
     47, 5, 4, 26, 10, 79, 41, 73, 3, 3, 10, 42, 50, 24, 65, 20, 56, 33, 38, 14 |
     30, 32, 63, 5, 75, 36, 64, 69, 32, 64, 27, 8, 8, 41, 34, 46, 42, 95, 58, 84 |
     7, 37, 56, 29, 30, 1, 2, 82, 84, 34, 50, 26, 17, 99, 93, 81, 80, 75, 60, 94 |
     41, 53, 35, 95, 40, 63, 23, 4, 97, 84, 78, 90, 6, 82, 45, 49, 24, 81, 33, 78 |
     17, 25, 18, 2, 68, 60, 13, 69, 58, 36, 36, 19, 62, 25, 97, 71, 4, 70, 71, 77 |
     41, 11, 15, 13, 88, 53, 80, 51, 83, 22, 61, 61, 9, 15, 19, 72, 81, 6, 33, 59 |
     47, 14, 69, 96, 94, 61, 88, 88, 15, 95, 85, 20, 33, 8, 19, 91, 78, 56, 53, 1 |
     94, 91, 12, 41, 83, 23, 25, 81, 83, 49, 83, 44, 86, 69, 40, 88, 19, 28, 30, 29 |
     63, 47, 24, 24, 96, 22, 13, 40, 18, 59, 59, 84, 33, 60, 18, 94, 80, 53, 76, 35 |
     71, 42, 31, 6, 23, 22, 98, 93, 17, 24, 28, 28, 23, 85, 89, 26, 80, 44, 78, 49 |
     17, 72, 32, 87, 32, 15, 80, 55, 27, 70, 90, 79, 49, 89, 46, 47, 72, 70, 3, 74 |
     81, 13, 33, 64, 10, 36, 75, 41, 87, 36, 89, 82, 81, 9, 45, 64, 95, 14, 14, 45 |
     71, 69, 52, 40, 86, 61, 42, 53, 81, 91, 32, 71, 61, 24, 66, 90, 10, 17, 8, 55 |
     50, 91, 81, 34, 2, 61, 78, 52, 25, 28, 67, 35, 41, 42, 83, 51, 32, 98, 90, 84 |
     78, 87, 10, 49, 20, 79, 62, 65, 23, 57, 12, 96, 40, 40, 36, 35, 86, 89, 71, 91 |
     78, 12, 81, 55, 4, 52, 32, 49, 77, 44, 98, 86, 97, 44, 78, 25, 50, 51, 19, 20 |
     69, 14, 68, 13, 38, 41, 11, 91, 38, 49, 90, 29, 27, 79, 2, 84, 42, 23, 77, 22 |
     84, 99, 62, 71, 62, 99, 73, 38, 24, 40, 30, 86, 20, 83, 23, 64, 53, 90, 11, 12 |
     48, 75, 97, 23, 60, 95, 8, 55, 45, 65, 74, 35, 19, 7, 89, 26, 27, 69, 99, 71 |
     47, 67, 96, 52, 96, 28, 45, 73, 18, 90, 37, 25, 81, 91, 82, 45, 14, 30, 37, 44 |
     41, 86, 65, 62, 42, 67, 40, 52, 19, 45, 76, 54, 12, 52, 44, 51, 19, 47, 23, 52 |
     42, 61, 54, 58, 87, 33, 30, 12, 52, 77, 86, 74, 50, 68, 12, 11, 90, 31, 69, 22 |
     14, 31, 55, 92, 44, 31, 56, 82, 59, 91, 38, 52, 91, 42, 36, 25, 66, 13, 15, 74 |
     56, 27, 16, 23, 14, 28, 59, 60, 20, 65, 81, 68, 2, 88, 71, 39, 91, 13, 83, 13 |
     83, 76, 60, 33, 43, 67, 18, 11, 5, 43, 24, 80, 96, 32, 91, 28, 39, 88, 75, 37 |
     6, 34, 24, 82, 48, 7, 66, 41, 57, 2, 23, 34, 36, 5, 23, 26, 43, 78, 40, 82 |
     47, 19, 2, 41, 70, 44, 53, 67, 58, 7, 29, 97, 18, 4, 22, 36, 65, 1, 46, 69 |
     6, 6, 21, 98, 40, 28, 38, 71, 28, 84, 78, 28, 10, 93, 63, 59, 33, 60, 71, 22 |
     27, 6, 63, 29, 6, 54, 31, 67, 41, 41, 39, 89, 62, 19, 38, 55, 35, 39, 79, 66 |
     81, 98, 77, 62, 65, 28, 51, 29, 66, 53, 31, 89, 13, 86, 48, 93, 96, 83, 9, 72 |
     43, 27, 76, 94, 66, 39, 50, 62, 16, 67, 66, 50, 73, 62, 54, 84, 98, 21, 15, 36 |
     28, 34, 98, 44, 4, 36, 63, 74, 25, 31, 71, 76, 3, 85, 67, 99, 2, 8, 14, 61 |
     43, 13, 70, 75, 21, 19, 38, 69, 29, 60, 85, 67, 57, 2, 16, 52, 25, 28, 70, 12 |
     4, 76, 59, 90, 93, 35, 69, 30, 30, 26, 10, 30, 83, 94, 72, 7, 2, 52, 78, 38 |
     20, 83, 63, 61, 1, 66, 87, 92, 26, 54, 4, 14, 92, 79, 78, 9, 26, 63, 67, 45 |
     24, 50, 68, 86, 86, 73, 84, 10, 82, 30, 65, 38, 76, 58, 14, 17, 11, 63, 83, 79 |
     46, 48, 77, 14, 75, 62, 79, 31, 77, 7, 42, 3, 12, 96, 95, 43, 48, 40, 3, 81 |
     74, 58, 35, 67, 78, 71, 97, 80, 61, 99, 30, 96, 98, 95, 90, 92, 84, 24, 53, 11 |
     74, 16, 48, 87, 67, 78, 56, 14, 80, 71, 46, 64, 69, 8, 26, 68, 58, 13, 29, 17 |
     1, 97, 14, 58, 2, 36, 5, 55, 84, 2, 37, 68, 82, 13, 23, 17, 49, 15, 3, 99 |
     13, 73, 7, 61, 76, 93, 43, 67, 38, 95, 46, 7, 31, 64, 79, 6, 6, 97, 71, 90 |
     35, 72, 97, 68, 33, 33, 38, 73, 99, 33, 21, 18, 85, 14, 96, 17, 51, 94, 2, 50 |
     21, 52, 11, 67, 76, 6, 71, 26, 44, 1, 4, 23, 39, 50, 82, 95, 21, 11, 62, 58 |
     90, 43, 29, 18, 61, 24, 28, 84, 87, 93, 13, 1, 53, 52, 44, 64, 53, 56, 61, 50 |
     77, 43, 87, 34, 70, 38, 56, 25, 54, 98, 9, 59, 90, 44, 11, 65, 87, 34, 1, 38 |
     96, 30, 9, 25, 90, 77, 95, 37, 79, 97, 15, 31, 17, 36, 19, 75, 24, 24, 64, 34 |];

mc = [| 3, 12, 4, 17, 20, 13, 7, 11, 2, 16, 1, 14, 6, 8, 18, 10, 5, 19, 15, 9 |
      15, 20, 12, 1, 19, 17, 10, 16, 7, 4, 14, 8, 5, 3, 13, 11, 9, 6, 18, 2 |
      4, 13, 18, 11, 17, 14, 7, 15, 8, 9, 5, 1, 12, 6, 20, 10, 19, 16, 2, 3 |
      3, 4, 13, 1, 16, 12, 9, 14, 18, 19, 20, 11, 17, 6, 5, 15, 8, 2, 7, 10 |
      6, 12, 13, 17, 18, 2, 15, 16, 11, 1, 20, 4, 7, 19, 3, 10, 5, 9, 14, 8 |
      5, 12, 17, 9, 14, 16, 13, 10, 4, 15, 8, 20, 11, 7, 6, 3, 1, 2, 19, 18 |
      17, 16, 1, 11, 15, 6, 14, 8, 20, 2, 4, 19, 10, 9, 12, 13, 5, 7, 3, 18 |
      19, 8, 5, 15, 4, 9, 20, 13, 10, 6, 18, 17, 14, 16, 1, 11, 2, 3, 7, 12 |
      15, 12, 18, 16, 2, 1, 8, 10, 20, 13, 7, 11, 6, 4, 14, 9, 5, 17, 19, 3 |
      18, 20, 1, 16, 11, 13, 15, 6, 7, 19, 4, 5, 17, 9, 2, 12, 10, 14, 8, 3 |
      3, 8, 12, 17, 10, 19, 11, 14, 5, 4, 15, 13, 16, 1, 7, 9, 20, 2, 18, 6 |
      12, 7, 10, 11, 6, 5, 17, 8, 2, 13, 4, 20, 3, 15, 18, 14, 1, 19, 9, 16 |
      19, 20, 1, 6, 11, 15, 18, 5, 13, 4, 17, 12, 2, 9, 3, 8, 10, 16, 14, 7 |
      7, 1, 8, 13, 17, 18, 4, 5, 15, 6, 10, 9, 20, 11, 2, 3, 12, 14, 19, 16 |
      16, 17, 15, 1, 13, 18, 9, 6, 11, 8, 19, 4, 10, 3, 20, 14, 2, 5, 12, 7 |
      17, 15, 3, 18, 1, 9, 12, 8, 7, 19, 10, 13, 16, 5, 11, 14, 2, 20, 4, 6 |
      11, 15, 10, 12, 8, 1, 7, 4, 9, 14, 17, 16, 13, 3, 20, 5, 2, 19, 18, 6 |
      3, 15, 6, 8, 18, 16, 19, 12, 2, 20, 11, 17, 10, 5, 14, 7, 4, 1, 9, 13 |
      3, 4, 19, 6, 10, 18, 2, 11, 9, 12, 5, 20, 13, 16, 7, 15, 14, 8, 17, 1 |
      12, 18, 14, 20, 7, 8, 10, 19, 9, 11, 4, 2, 5, 6, 16, 15, 13, 3, 17, 1 |
      6, 19, 12, 17, 1, 5, 15, 3, 10, 18, 20, 13, 9, 16, 7, 11, 2, 8, 14, 4 |
      17, 20, 11, 1, 15, 9, 12, 7, 8, 18, 19, 2, 4, 6, 13, 3, 5, 14, 10, 16 |
      3, 20, 11, 13, 8, 9, 18, 17, 15, 2, 7, 6, 5, 1, 4, 14, 12, 19, 16, 10 |
      15, 5, 4, 7, 6, 10, 3, 13, 2, 1, 17, 9, 11, 14, 20, 19, 16, 12, 18, 8 |
      10, 17, 18, 3, 5, 8, 12, 19, 1, 7, 9, 20, 16, 4, 14, 6, 15, 13, 2, 11 |
      3, 11, 18, 14, 19, 12, 5, 1, 15, 8, 16, 2, 7, 17, 13, 20, 4, 10, 9, 6 |
      17, 19, 2, 6, 18, 15, 20, 11, 16, 4, 10, 12, 7, 13, 14, 9, 1, 5, 8, 3 |
      10, 14, 6, 2, 7, 16, 1, 8, 20, 19, 17, 4, 5, 13, 11, 15, 3, 9, 12, 18 |
      10, 11, 7, 8, 14, 13, 15, 2, 6, 12, 17, 3, 18, 20, 1, 19, 9, 5, 16, 4 |
      4, 12, 11, 1, 13, 17, 16, 14, 15, 2, 20, 7, 19, 10, 18, 9, 3, 8, 5, 6 |
      9, 11, 18, 13, 7, 10, 5, 16, 3, 8, 6, 20, 2, 17, 19, 1, 4, 14, 12, 15 |
      9, 16, 7, 20, 3, 4, 2, 12, 8, 6, 18, 5, 17, 13, 1, 15, 19, 10, 11, 14 |
      7, 16, 11, 1, 5, 13, 2, 6, 18, 4, 19, 3, 12, 10, 15, 14, 20, 17, 8, 9 |
      12, 11, 17, 14, 3, 7, 4, 20, 8, 13, 15, 10, 9, 2, 16, 5, 19, 6, 1, 18 |
      1, 7, 8, 10, 14, 3, 16, 12, 6, 13, 15, 20, 9, 4, 17, 2, 5, 19, 18, 11 |
      4, 15, 13, 20, 6, 7, 11, 14, 5, 16, 10, 3, 9, 19, 2, 18, 8, 12, 1, 17 |
      16, 12, 19, 3, 17, 10, 6, 18, 13, 14, 20, 8, 15, 5, 4, 1, 7, 11, 9, 2 |
      4, 13, 3, 20, 6, 19, 17, 11, 10, 5, 12, 9, 2, 8, 15, 16, 18, 14, 7, 1 |
      7, 9, 5, 17, 11, 2, 16, 8, 13, 3, 19, 14, 10, 12, 18, 6, 15, 1, 4, 20 |
      14, 4, 18, 10, 12, 6, 8, 2, 9, 15, 5, 19, 1, 13, 20, 16, 3, 11, 17, 7 |
      9, 20, 15, 8, 5, 1, 12, 17, 10, 14, 18, 6, 2, 11, 16, 19, 7, 4, 3, 13 |
      19, 14, 20, 6, 7, 12, 10, 15, 4, 11, 8, 13, 16, 5, 3, 17, 1, 2, 18, 9 |
      10, 18, 16, 1, 6, 9, 4, 20, 19, 7, 8, 17, 11, 5, 15, 3, 12, 14, 13, 2 |
      9, 15, 17, 4, 8, 13, 10, 19, 20, 18, 6, 1, 7, 2, 12, 5, 14, 11, 3, 16 |
      19, 3, 5, 11, 8, 6, 17, 15, 14, 1, 9, 20, 2, 12, 7, 13, 16, 10, 18, 4 |
      10, 6, 8, 18, 7, 19, 9, 13, 17, 16, 1, 14, 15, 2, 11, 3, 20, 12, 4, 5 |
      20, 18, 10, 15, 9, 7, 17, 11, 13, 2, 16, 4, 19, 3, 12, 6, 8, 14, 5, 1 |
      9, 19, 5, 11, 8, 10, 14, 3, 1, 17, 16, 18, 20, 2, 4, 15, 12, 13, 6, 7 |
      1, 10, 20, 16, 12, 17, 4, 2, 15, 5, 9, 14, 7, 18, 13, 19, 8, 11, 3, 6 |
      9, 1, 6, 19, 12, 4, 10, 20, 13, 11, 15, 5, 7, 2, 14, 18, 16, 8, 3, 17 |];
