n = 30;
m = 20;

d = [| 53, 16, 52, 31, 59, 25, 63, 38, 3, 1, 75, 19, 56, 61, 84, 22, 24, 7, 17, 38 |
     48, 31, 84, 57, 88, 29, 23, 84, 74, 26, 17, 82, 61, 81, 34, 87, 19, 25, 68, 95 |
     98, 98, 40, 9, 84, 81, 36, 50, 97, 49, 57, 10, 34, 20, 85, 83, 71, 8, 72, 52 |
     48, 19, 30, 53, 41, 5, 7, 40, 83, 54, 83, 98, 79, 10, 22, 10, 57, 30, 9, 95 |
     93, 78, 15, 89, 19, 28, 80, 15, 89, 75, 34, 77, 39, 91, 43, 63, 34, 19, 93, 59 |
     37, 87, 22, 98, 33, 55, 45, 95, 21, 61, 1, 75, 3, 72, 72, 38, 18, 19, 53, 6 |
     97, 48, 1, 72, 66, 10, 34, 78, 15, 81, 5, 28, 54, 37, 71, 52, 47, 44, 29, 3 |
     99, 82, 1, 35, 81, 27, 81, 50, 98, 88, 90, 88, 64, 52, 65, 21, 87, 36, 91, 15 |
     63, 11, 12, 44, 45, 16, 71, 99, 82, 53, 76, 31, 29, 48, 75, 95, 58, 19, 16, 1 |
     83, 9, 55, 96, 78, 73, 75, 43, 23, 70, 50, 33, 35, 32, 14, 29, 67, 50, 61, 89 |
     38, 5, 40, 98, 4, 70, 79, 25, 94, 23, 45, 55, 71, 59, 48, 48, 77, 70, 99, 25 |
     72, 74, 94, 16, 35, 78, 33, 85, 55, 46, 87, 56, 78, 37, 86, 37, 32, 47, 64, 97 |
     49, 61, 50, 40, 99, 89, 13, 23, 65, 31, 10, 6, 18, 87, 56, 19, 11, 68, 98, 42 |
     5, 45, 12, 2, 67, 58, 6, 73, 94, 20, 19, 36, 76, 46, 35, 25, 30, 35, 87, 56 |
     90, 76, 38, 80, 63, 17, 1, 43, 24, 8, 62, 66, 24, 31, 63, 97, 17, 21, 48, 77 |
     92, 32, 65, 18, 32, 51, 72, 93, 48, 49, 58, 17, 99, 84, 15, 38, 98, 19, 87, 52 |
     32, 77, 35, 39, 97, 66, 89, 66, 68, 17, 70, 4, 37, 69, 75, 88, 14, 74, 71, 84 |
     30, 24, 95, 95, 35, 97, 5, 96, 66, 45, 30, 98, 20, 57, 41, 78, 5, 35, 47, 89 |
     52, 29, 42, 37, 39, 45, 62, 10, 71, 31, 18, 69, 87, 59, 90, 32, 3, 74, 86, 93 |
     9, 34, 10, 19, 59, 61, 14, 36, 16, 14, 23, 14, 33, 86, 19, 30, 13, 72, 39, 52 |
     23, 65, 20, 6, 92, 32, 17, 47, 23, 38, 19, 25, 93, 62, 64, 10, 5, 17, 37, 34 |
     11, 98, 18, 27, 70, 28, 89, 83, 40, 77, 55, 84, 21, 61, 95, 58, 76, 68, 8, 14 |
     34, 24, 57, 56, 51, 4, 72, 20, 3, 8, 89, 20, 15, 14, 66, 71, 9, 57, 42, 24 |
     41, 80, 78, 60, 85, 50, 66, 63, 24, 86, 31, 14, 82, 47, 48, 61, 84, 87, 86, 58 |
     85, 35, 35, 20, 49, 27, 50, 50, 64, 43, 70, 25, 83, 25, 18, 8, 85, 97, 50, 51 |
     56, 24, 87, 34, 39, 30, 51, 81, 79, 93, 47, 5, 18, 70, 61, 17, 46, 11, 81, 58 |
     55, 58, 29, 22, 28, 35, 19, 22, 65, 38, 44, 73, 8, 47, 97, 98, 88, 96, 22, 69 |
     36, 46, 79, 63, 18, 2, 62, 71, 38, 63, 13, 25, 25, 81, 3, 75, 84, 67, 60, 62 |
     76, 45, 33, 71, 39, 14, 62, 65, 66, 10, 69, 51, 53, 25, 17, 47, 91, 85, 80, 52 |
     54, 59, 64, 69, 2, 33, 50, 40, 12, 25, 49, 49, 69, 80, 99, 44, 44, 55, 58, 43 |];

mc = [| 5, 13, 6, 12, 18, 8, 20, 2, 9, 15, 3, 16, 14, 1, 4, 19, 7, 11, 10, 17 |
      10, 20, 1, 7, 4, 9, 12, 14, 11, 8, 18, 3, 15, 13, 5, 17, 16, 2, 19, 6 |
      14, 4, 3, 16, 17, 9, 5, 19, 6, 10, 11, 1, 12, 8, 2, 15, 13, 18, 20, 7 |
      5, 6, 16, 9, 4, 20, 7, 2, 19, 15, 13, 1, 8, 12, 3, 11, 17, 10, 18, 14 |
      11, 4, 20, 7, 8, 13, 16, 12, 9, 1, 6, 5, 10, 19, 14, 15, 2, 3, 18, 17 |
      3, 14, 2, 19, 1, 10, 8, 13, 4, 11, 15, 16, 7, 17, 5, 9, 18, 6, 20, 12 |
      16, 4, 12, 2, 7, 14, 20, 8, 15, 13, 17, 6, 11, 19, 18, 3, 9, 5, 1, 10 |
      1, 8, 15, 16, 14, 2, 10, 7, 4, 5, 13, 6, 19, 18, 9, 17, 12, 3, 11, 20 |
      19, 13, 16, 15, 1, 3, 8, 20, 14, 5, 17, 10, 11, 4, 7, 18, 2, 9, 12, 6 |
      20, 7, 12, 19, 9, 16, 17, 3, 13, 10, 5, 2, 18, 8, 1, 11, 6, 14, 15, 4 |
      7, 6, 10, 12, 18, 11, 14, 4, 1, 9, 8, 13, 17, 16, 20, 15, 19, 2, 3, 5 |
      19, 18, 6, 10, 2, 4, 15, 14, 20, 7, 3, 13, 5, 16, 1, 8, 17, 11, 9, 12 |
      14, 20, 19, 5, 9, 6, 4, 17, 11, 12, 3, 15, 16, 1, 2, 8, 10, 13, 18, 7 |
      18, 17, 15, 1, 2, 8, 6, 7, 9, 14, 20, 19, 10, 12, 5, 13, 11, 3, 4, 16 |
      13, 17, 20, 16, 7, 14, 2, 5, 11, 18, 19, 4, 12, 3, 9, 6, 1, 10, 8, 15 |
      6, 13, 4, 17, 19, 8, 16, 12, 20, 15, 9, 10, 11, 1, 7, 18, 3, 14, 2, 5 |
      7, 16, 19, 9, 18, 4, 5, 3, 11, 8, 14, 12, 10, 1, 2, 6, 15, 17, 20, 13 |
      20, 6, 17, 8, 9, 10, 18, 11, 5, 13, 15, 12, 16, 1, 7, 4, 14, 3, 19, 2 |
      13, 11, 14, 18, 9, 6, 1, 4, 7, 2, 16, 3, 20, 17, 12, 10, 5, 19, 15, 8 |
      2, 12, 13, 4, 14, 6, 11, 15, 5, 20, 3, 1, 18, 7, 17, 10, 16, 8, 9, 19 |
      20, 7, 18, 1, 4, 17, 3, 10, 19, 9, 16, 6, 13, 15, 12, 2, 11, 14, 8, 5 |
      2, 12, 17, 4, 10, 14, 11, 8, 16, 18, 7, 19, 13, 5, 15, 1, 9, 6, 3, 20 |
      15, 11, 5, 12, 14, 13, 9, 16, 1, 8, 10, 19, 2, 6, 7, 17, 4, 3, 18, 20 |
      16, 10, 20, 17, 14, 18, 5, 8, 4, 15, 13, 2, 1, 9, 19, 12, 3, 11, 7, 6 |
      5, 15, 14, 10, 12, 2, 6, 7, 18, 3, 4, 8, 1, 11, 13, 20, 17, 19, 9, 16 |
      13, 14, 12, 2, 6, 4, 15, 1, 10, 19, 20, 16, 9, 11, 17, 7, 18, 8, 5, 3 |
      11, 19, 20, 4, 7, 8, 10, 1, 12, 6, 15, 16, 5, 3, 13, 14, 18, 2, 9, 17 |
      8, 10, 6, 5, 14, 16, 12, 3, 20, 17, 1, 19, 13, 18, 9, 15, 7, 2, 11, 4 |
      13, 16, 11, 14, 17, 15, 19, 8, 5, 20, 4, 18, 3, 1, 9, 12, 7, 10, 2, 6 |
      11, 6, 15, 12, 16, 14, 3, 4, 1, 8, 13, 19, 7, 20, 5, 9, 17, 2, 10, 18 |];
