n = 15;
m = 8;

d = [| 79, 51, 40, 39, 29, 32, 56, 53 |
     10, 43, 26, 44, 79, 47, 18, 78 |
     90, 47, 38, 32, 97, 47, 63, 56 |
     6, 62, 50, 88, 60, 81, 32, 48 |
     78, 76, 6, 80, 48, 47, 88, 98 |
     76, 51, 61, 73, 28, 27, 17, 75 |
     44, 79, 7, 88, 30, 98, 68, 11 |
     1, 40, 50, 29, 56, 6, 71, 66 |
     92, 64, 20, 95, 39, 3, 49, 16 |
     1, 68, 38, 98, 31, 63, 58, 43 |
     16, 67, 75, 29, 5, 32, 60, 50 |
     62, 27, 75, 36, 75, 65, 33, 99 |
     14, 54, 69, 27, 76, 42, 22, 58 |
     6, 18, 89, 81, 34, 57, 56, 29 |
     74, 58, 83, 98, 47, 65, 89, 39 |];

mc = [| 4, 7, 6, 3, 1, 8, 5, 2 |
      5, 4, 1, 7, 6, 2, 8, 3 |
      6, 2, 1, 4, 3, 7, 8, 5 |
      7, 3, 5, 4, 2, 1, 6, 8 |
      3, 6, 2, 4, 5, 7, 8, 1 |
      7, 1, 2, 3, 4, 6, 8, 5 |
      5, 1, 4, 8, 3, 6, 2, 7 |
      3, 1, 5, 8, 4, 7, 6, 2 |
      6, 1, 7, 2, 8, 5, 3, 4 |
      1, 3, 2, 8, 6, 4, 7, 5 |
      3, 2, 7, 4, 1, 5, 8, 6 |
      4, 5, 3, 1, 6, 8, 2, 7 |
      8, 7, 1, 5, 6, 3, 4, 2 |
      3, 1, 4, 5, 8, 2, 7, 6 |
      4, 3, 8, 7, 2, 5, 6, 1 |];
