n = 15;
m = 15;

d = [| 99, 8, 17, 79, 44, 43, 44, 52, 58, 72, 45, 71, 53, 35, 51 |
     6, 3, 99, 58, 32, 1, 12, 30, 33, 82, 69, 29, 96, 3, 25 |
     8, 48, 83, 28, 94, 34, 30, 75, 47, 87, 26, 80, 35, 74, 11 |
     79, 3, 23, 22, 49, 30, 7, 89, 4, 30, 18, 92, 37, 30, 72 |
     16, 95, 70, 68, 58, 46, 76, 87, 34, 33, 16, 67, 14, 81, 77 |
     34, 8, 84, 34, 39, 83, 77, 51, 14, 24, 16, 67, 58, 19, 93 |
     1, 66, 64, 82, 28, 46, 29, 39, 66, 8, 48, 49, 3, 61, 80 |
     18, 10, 15, 19, 16, 21, 9, 72, 18, 37, 29, 61, 8, 98, 31 |
     20, 80, 76, 48, 93, 80, 80, 50, 8, 19, 6, 45, 69, 50, 71 |
     13, 41, 18, 72, 78, 90, 13, 52, 11, 75, 34, 59, 34, 13, 5 |
     22, 81, 10, 93, 73, 39, 39, 60, 89, 63, 67, 70, 37, 30, 5 |
     88, 28, 45, 7, 81, 85, 40, 43, 56, 84, 56, 24, 77, 48, 40 |
     8, 36, 30, 62, 33, 59, 67, 27, 90, 34, 71, 4, 26, 46, 72 |
     76, 29, 20, 94, 63, 89, 78, 7, 73, 20, 98, 21, 49, 63, 69 |
     25, 66, 81, 48, 84, 28, 95, 29, 92, 62, 76, 56, 16, 37, 84 |];

mc = [| 7, 12, 13, 11, 3, 2, 14, 15, 10, 8, 9, 6, 5, 4, 1 |
      8, 5, 12, 10, 1, 2, 11, 15, 4, 13, 7, 3, 9, 6, 14 |
      3, 4, 6, 12, 2, 5, 8, 15, 7, 13, 10, 1, 9, 11, 14 |
      11, 3, 7, 12, 13, 6, 9, 10, 2, 1, 14, 5, 8, 15, 4 |
      9, 5, 14, 6, 3, 11, 12, 15, 1, 2, 4, 8, 7, 10, 13 |
      1, 11, 5, 7, 14, 15, 13, 10, 4, 9, 2, 3, 6, 12, 8 |
      10, 2, 11, 6, 15, 4, 1, 12, 8, 13, 9, 3, 5, 14, 7 |
      10, 15, 6, 1, 11, 5, 13, 9, 8, 2, 14, 4, 3, 12, 7 |
      2, 11, 10, 3, 7, 14, 15, 13, 12, 4, 8, 1, 5, 6, 9 |
      9, 11, 3, 8, 5, 13, 10, 12, 1, 15, 7, 6, 2, 14, 4 |
      11, 13, 2, 4, 12, 14, 15, 9, 7, 8, 3, 5, 10, 1, 6 |
      2, 7, 15, 4, 9, 5, 12, 1, 10, 3, 11, 6, 8, 13, 14 |
      5, 7, 1, 14, 13, 11, 4, 12, 9, 15, 6, 2, 3, 10, 8 |
      9, 4, 1, 5, 7, 6, 12, 8, 11, 10, 13, 2, 15, 14, 3 |
      10, 8, 1, 13, 7, 6, 14, 15, 9, 12, 2, 4, 11, 3, 5 |];
