n = 50;
m = 15;

d = [| 28, 24, 70, 8, 14, 74, 63, 76, 4, 98, 44, 24, 47, 97, 51 |
     63, 90, 58, 80, 5, 62, 17, 61, 31, 46, 85, 91, 10, 28, 66 |
     68, 98, 22, 43, 56, 19, 48, 48, 58, 62, 91, 52, 52, 16, 91 |
     21, 27, 33, 13, 70, 99, 28, 3, 70, 27, 69, 36, 39, 20, 8 |
     8, 62, 89, 19, 8, 87, 4, 23, 27, 22, 70, 31, 23, 52, 81 |
     17, 97, 40, 65, 49, 79, 37, 45, 43, 60, 65, 12, 35, 15, 84 |
     42, 83, 7, 17, 81, 74, 87, 99, 67, 42, 88, 98, 70, 49, 1 |
     74, 47, 17, 76, 42, 61, 12, 38, 75, 43, 2, 93, 20, 88, 60 |
     51, 96, 4, 30, 66, 36, 18, 80, 67, 15, 37, 82, 71, 36, 37 |
     68, 73, 75, 11, 79, 30, 62, 73, 57, 16, 99, 48, 75, 2, 41 |
     93, 83, 8, 80, 70, 46, 71, 42, 40, 76, 91, 74, 55, 56, 25 |
     70, 88, 35, 47, 53, 49, 31, 9, 66, 66, 28, 84, 2, 77, 58 |
     71, 15, 40, 79, 73, 57, 44, 97, 47, 36, 15, 43, 4, 69, 38 |
     97, 8, 8, 6, 76, 1, 67, 92, 41, 96, 53, 44, 25, 47, 18 |
     6, 53, 46, 34, 49, 80, 35, 40, 92, 77, 58, 9, 19, 50, 39 |
     42, 39, 52, 10, 30, 45, 93, 9, 47, 25, 53, 30, 35, 62, 96 |
     11, 33, 62, 12, 72, 55, 61, 47, 32, 35, 85, 89, 39, 20, 64 |
     14, 43, 52, 2, 97, 59, 19, 36, 98, 64, 83, 96, 86, 73, 15 |
     57, 7, 28, 47, 40, 3, 16, 27, 51, 35, 43, 86, 26, 62, 91 |
     60, 82, 47, 20, 66, 91, 51, 3, 47, 1, 95, 45, 14, 14, 18 |
     26, 95, 37, 17, 97, 5, 34, 74, 11, 38, 49, 44, 43, 56, 48 |
     96, 12, 61, 46, 54, 30, 51, 9, 40, 86, 63, 63, 79, 72, 21 |
     79, 47, 49, 13, 90, 5, 84, 37, 50, 82, 44, 52, 66, 69, 49 |
     90, 21, 23, 18, 45, 24, 87, 80, 41, 6, 22, 12, 78, 73, 89 |
     19, 74, 47, 43, 85, 36, 2, 15, 18, 98, 45, 79, 96, 61, 15 |
     31, 71, 37, 90, 96, 8, 82, 93, 52, 31, 79, 62, 79, 36, 89 |
     14, 71, 25, 26, 45, 12, 44, 24, 15, 51, 87, 8, 92, 64, 94 |
     11, 83, 96, 57, 27, 48, 5, 70, 75, 88, 14, 19, 4, 16, 96 |
     61, 1, 6, 12, 11, 92, 71, 2, 77, 36, 58, 65, 17, 12, 53 |
     48, 92, 28, 49, 46, 90, 97, 83, 52, 35, 75, 13, 76, 40, 72 |
     45, 35, 35, 99, 81, 89, 44, 86, 76, 2, 21, 54, 47, 79, 5 |
     44, 80, 73, 26, 57, 42, 92, 36, 98, 97, 16, 96, 43, 79, 57 |
     19, 8, 4, 12, 66, 21, 98, 36, 92, 68, 26, 34, 14, 20, 63 |
     13, 32, 95, 54, 49, 14, 65, 69, 46, 81, 69, 70, 13, 8, 45 |
     68, 1, 78, 25, 39, 83, 13, 99, 95, 90, 25, 17, 23, 20, 97 |
     72, 39, 64, 93, 27, 49, 74, 12, 24, 64, 89, 64, 93, 91, 1 |
     8, 34, 84, 86, 85, 6, 97, 39, 90, 61, 83, 14, 38, 11, 81 |
     80, 10, 42, 91, 46, 24, 92, 5, 77, 52, 67, 24, 47, 39, 44 |
     1, 19, 2, 94, 49, 45, 23, 25, 66, 28, 3, 37, 25, 7, 38 |
     4, 59, 79, 2, 52, 61, 45, 2, 24, 16, 33, 53, 2, 61, 85 |
     69, 92, 75, 24, 78, 24, 97, 54, 72, 1, 46, 84, 71, 97, 5 |
     61, 34, 96, 34, 10, 19, 85, 31, 39, 56, 52, 58, 70, 97, 9 |
     63, 16, 67, 13, 6, 21, 83, 18, 97, 97, 3, 83, 63, 93, 53 |
     22, 57, 11, 86, 40, 91, 83, 4, 48, 48, 94, 14, 48, 51, 89 |
     78, 97, 35, 79, 23, 46, 33, 26, 18, 87, 98, 60, 35, 65, 49 |
     45, 73, 18, 8, 90, 67, 88, 14, 53, 42, 17, 58, 53, 82, 4 |
     29, 1, 70, 44, 3, 52, 24, 17, 41, 44, 92, 6, 77, 61, 75 |
     40, 48, 24, 9, 69, 72, 90, 52, 91, 94, 97, 71, 49, 11, 9 |
     42, 87, 25, 81, 10, 4, 29, 60, 80, 49, 97, 65, 34, 41, 65 |
     39, 52, 82, 38, 75, 24, 56, 58, 58, 73, 63, 39, 24, 13, 52 |];

mc = [| 15, 12, 9, 14, 10, 7, 2, 1, 4, 3, 13, 11, 6, 5, 8 |
      10, 6, 9, 14, 12, 13, 15, 4, 8, 7, 1, 5, 3, 11, 2 |
      2, 8, 6, 14, 9, 7, 4, 12, 13, 15, 3, 10, 11, 5, 1 |
      7, 1, 15, 11, 13, 6, 5, 12, 14, 4, 10, 2, 8, 9, 3 |
      2, 9, 3, 4, 8, 14, 12, 11, 7, 15, 1, 6, 13, 5, 10 |
      2, 10, 13, 11, 6, 15, 8, 3, 14, 9, 7, 12, 5, 1, 4 |
      8, 9, 13, 7, 6, 10, 5, 15, 4, 3, 2, 1, 12, 11, 14 |
      15, 5, 11, 6, 3, 1, 9, 2, 13, 10, 12, 7, 4, 14, 8 |
      15, 13, 6, 12, 5, 3, 11, 14, 2, 7, 9, 4, 8, 1, 10 |
      15, 1, 10, 11, 2, 13, 7, 6, 12, 3, 9, 5, 14, 4, 8 |
      12, 14, 2, 8, 7, 13, 1, 9, 6, 4, 11, 15, 5, 3, 10 |
      6, 11, 15, 14, 9, 10, 12, 3, 13, 4, 5, 8, 2, 7, 1 |
      13, 2, 6, 7, 1, 15, 3, 12, 11, 8, 10, 14, 9, 4, 5 |
      11, 14, 12, 7, 4, 2, 13, 1, 3, 10, 6, 8, 9, 5, 15 |
      14, 12, 2, 6, 13, 7, 10, 11, 5, 4, 15, 3, 9, 1, 8 |
      8, 5, 9, 7, 14, 15, 2, 3, 13, 11, 4, 10, 1, 12, 6 |
      6, 1, 14, 13, 8, 15, 10, 7, 3, 4, 11, 2, 5, 9, 12 |
      12, 2, 8, 7, 15, 1, 9, 10, 4, 3, 11, 5, 13, 14, 6 |
      2, 13, 8, 3, 6, 1, 15, 10, 14, 7, 4, 12, 5, 11, 9 |
      15, 9, 5, 12, 4, 11, 8, 10, 3, 2, 1, 7, 14, 13, 6 |
      6, 4, 7, 15, 13, 3, 10, 1, 2, 9, 12, 14, 11, 5, 8 |
      7, 6, 4, 1, 2, 8, 15, 14, 11, 9, 12, 3, 13, 5, 10 |
      2, 14, 4, 7, 12, 5, 1, 10, 8, 9, 6, 13, 15, 3, 11 |
      5, 12, 11, 7, 3, 2, 14, 15, 9, 1, 10, 8, 13, 6, 4 |
      4, 9, 15, 7, 6, 13, 1, 5, 10, 8, 2, 3, 14, 12, 11 |
      14, 5, 12, 8, 15, 11, 2, 3, 6, 7, 10, 9, 4, 13, 1 |
      7, 2, 10, 1, 6, 14, 13, 8, 3, 15, 4, 5, 11, 12, 9 |
      12, 4, 15, 5, 1, 14, 13, 8, 10, 3, 2, 9, 11, 7, 6 |
      1, 2, 12, 4, 15, 11, 10, 8, 13, 5, 6, 14, 9, 3, 7 |
      15, 12, 1, 14, 13, 2, 8, 11, 7, 5, 9, 6, 10, 4, 3 |
      11, 12, 15, 1, 13, 9, 3, 2, 7, 8, 5, 4, 10, 6, 14 |
      15, 3, 12, 13, 7, 8, 2, 9, 11, 1, 6, 4, 5, 10, 14 |
      5, 13, 9, 8, 11, 7, 15, 6, 10, 14, 3, 1, 2, 4, 12 |
      13, 11, 10, 15, 3, 2, 6, 5, 12, 4, 1, 14, 8, 9, 7 |
      8, 15, 2, 10, 9, 7, 4, 12, 5, 6, 11, 3, 14, 1, 13 |
      9, 4, 1, 2, 15, 13, 10, 8, 11, 5, 14, 12, 3, 7, 6 |
      5, 15, 8, 13, 6, 7, 14, 10, 3, 9, 4, 12, 11, 2, 1 |
      4, 5, 13, 2, 14, 10, 9, 15, 12, 6, 11, 8, 3, 7, 1 |
      11, 15, 10, 13, 2, 8, 12, 6, 7, 1, 9, 3, 4, 5, 14 |
      13, 9, 7, 8, 6, 4, 12, 1, 5, 10, 11, 2, 3, 15, 14 |
      10, 6, 12, 15, 5, 3, 2, 8, 1, 7, 9, 13, 14, 4, 11 |
      8, 10, 12, 13, 9, 4, 15, 5, 1, 11, 6, 7, 2, 14, 3 |
      3, 12, 2, 5, 4, 15, 8, 1, 9, 6, 13, 14, 10, 11, 7 |
      10, 13, 9, 5, 2, 12, 3, 11, 14, 15, 7, 4, 8, 6, 1 |
      11, 9, 6, 7, 14, 1, 5, 13, 8, 12, 4, 15, 2, 3, 10 |
      5, 6, 9, 12, 3, 13, 15, 7, 8, 1, 2, 14, 11, 10, 4 |
      10, 8, 2, 4, 1, 13, 3, 15, 9, 7, 12, 5, 11, 6, 14 |
      14, 1, 6, 15, 4, 3, 11, 7, 10, 8, 13, 9, 12, 5, 2 |
      15, 4, 11, 10, 14, 1, 12, 2, 7, 5, 6, 8, 13, 3, 9 |
      14, 4, 12, 5, 9, 15, 2, 6, 8, 7, 1, 13, 11, 3, 10 |];
