n = 100;
m = 20;

d = [| 96, 35, 41, 28, 92, 70, 13, 25, 18, 71, 27, 64, 28, 71, 6, 85, 89, 63, 52, 31 |
     99, 91, 78, 39, 89, 64, 44, 62, 71, 24, 44, 59, 95, 18, 23, 70, 97, 5, 99, 19 |
     10, 62, 20, 70, 20, 35, 58, 39, 62, 37, 61, 86, 2, 69, 92, 43, 89, 97, 39, 90 |
     55, 62, 5, 79, 12, 72, 48, 82, 29, 26, 91, 32, 27, 14, 5, 31, 33, 65, 87, 97 |
     58, 48, 36, 46, 63, 12, 68, 36, 27, 44, 32, 61, 56, 4, 75, 48, 14, 87, 20, 91 |
     29, 40, 34, 8, 9, 21, 41, 18, 15, 73, 86, 49, 37, 21, 78, 75, 64, 19, 43, 31 |
     74, 80, 2, 56, 53, 82, 38, 19, 38, 82, 94, 84, 88, 54, 38, 84, 96, 90, 16, 88 |
     34, 94, 69, 80, 37, 43, 54, 54, 42, 41, 49, 74, 85, 77, 54, 3, 70, 15, 96, 56 |
     42, 42, 32, 55, 82, 34, 96, 96, 43, 33, 82, 59, 51, 23, 16, 6, 81, 51, 5, 98 |
     15, 4, 76, 79, 62, 68, 71, 72, 66, 62, 81, 54, 49, 2, 68, 47, 3, 10, 35, 74 |
     44, 89, 98, 26, 64, 23, 74, 87, 18, 34, 67, 46, 56, 61, 68, 26, 63, 44, 39, 50 |
     31, 23, 40, 95, 22, 45, 34, 16, 82, 19, 21, 79, 57, 2, 98, 24, 75, 15, 73, 47 |
     58, 85, 94, 63, 53, 30, 48, 33, 73, 5, 44, 62, 31, 81, 53, 25, 5, 50, 61, 68 |
     58, 65, 1, 96, 17, 3, 85, 77, 74, 58, 30, 2, 30, 31, 15, 9, 88, 19, 42, 71 |
     44, 48, 56, 32, 49, 8, 18, 41, 72, 33, 54, 75, 98, 70, 97, 81, 97, 81, 59, 12 |
     69, 39, 96, 57, 69, 57, 50, 47, 9, 97, 82, 22, 40, 49, 78, 49, 56, 50, 92, 61 |
     51, 59, 42, 42, 80, 11, 59, 49, 90, 2, 90, 63, 34, 44, 39, 70, 30, 20, 81, 23 |
     38, 87, 81, 63, 69, 44, 4, 74, 44, 72, 47, 59, 1, 96, 46, 72, 63, 91, 12, 91 |
     52, 81, 68, 64, 98, 90, 95, 69, 39, 21, 56, 43, 73, 64, 28, 87, 99, 1, 71, 72 |
     64, 92, 13, 2, 9, 56, 19, 64, 66, 78, 12, 10, 17, 59, 49, 7, 38, 31, 13, 75 |
     24, 72, 6, 3, 25, 83, 57, 49, 38, 62, 3, 85, 24, 34, 49, 85, 46, 64, 16, 77 |
     88, 53, 73, 8, 19, 3, 33, 96, 79, 94, 85, 24, 31, 75, 2, 77, 54, 3, 6, 54 |
     38, 6, 48, 96, 88, 99, 77, 16, 77, 82, 53, 43, 93, 58, 64, 67, 88, 47, 32, 56 |
     94, 65, 31, 3, 49, 63, 57, 71, 58, 21, 59, 80, 8, 7, 17, 44, 27, 52, 8, 17 |
     57, 96, 2, 18, 26, 37, 29, 18, 74, 66, 24, 41, 70, 18, 71, 86, 62, 11, 57, 77 |
     88, 54, 73, 91, 31, 21, 63, 24, 9, 56, 38, 53, 86, 12, 6, 79, 2, 42, 89, 91 |
     5, 85, 39, 18, 28, 14, 59, 34, 98, 73, 5, 45, 66, 61, 47, 74, 9, 45, 33, 99 |
     89, 39, 12, 47, 77, 91, 49, 43, 17, 19, 82, 14, 82, 46, 64, 42, 56, 67, 15, 45 |
     90, 13, 20, 53, 2, 69, 11, 26, 49, 97, 11, 93, 90, 70, 89, 22, 55, 32, 83, 27 |
     17, 82, 56, 38, 45, 33, 4, 66, 92, 77, 78, 88, 41, 75, 49, 24, 84, 74, 97, 90 |
     98, 47, 17, 14, 77, 66, 42, 8, 88, 51, 8, 37, 35, 66, 49, 51, 76, 64, 54, 44 |
     41, 8, 83, 97, 24, 38, 14, 5, 87, 98, 61, 99, 71, 89, 50, 57, 35, 19, 65, 84 |
     53, 69, 63, 4, 79, 23, 92, 59, 53, 93, 89, 98, 37, 89, 2, 57, 62, 38, 41, 39 |
     72, 96, 21, 1, 42, 80, 65, 66, 31, 86, 25, 83, 6, 42, 45, 59, 65, 51, 27, 1 |
     68, 30, 89, 1, 36, 19, 24, 3, 23, 57, 84, 82, 8, 70, 11, 6, 23, 18, 81, 26 |
     42, 37, 98, 77, 35, 73, 14, 71, 36, 65, 81, 37, 91, 98, 34, 56, 83, 35, 25, 19 |
     19, 35, 48, 35, 13, 85, 43, 90, 68, 74, 60, 65, 10, 86, 40, 81, 79, 33, 33, 64 |
     52, 74, 49, 97, 16, 83, 43, 7, 87, 89, 67, 45, 75, 45, 47, 89, 47, 77, 53, 91 |
     27, 41, 93, 55, 38, 5, 91, 82, 44, 23, 16, 36, 11, 47, 50, 91, 34, 82, 89, 25 |
     74, 93, 84, 37, 31, 33, 27, 32, 72, 31, 29, 22, 25, 90, 37, 10, 14, 10, 24, 40 |
     84, 6, 61, 42, 4, 92, 18, 6, 87, 74, 78, 54, 47, 45, 18, 24, 83, 19, 53, 60 |
     59, 75, 56, 87, 37, 37, 52, 89, 80, 25, 1, 5, 8, 53, 8, 67, 45, 16, 57, 40 |
     6, 26, 37, 48, 26, 6, 85, 79, 89, 82, 13, 94, 74, 1, 60, 76, 64, 76, 86, 86 |
     67, 23, 23, 22, 86, 53, 49, 8, 33, 24, 52, 43, 18, 67, 51, 63, 55, 24, 24, 53 |
     39, 40, 16, 62, 63, 52, 94, 85, 73, 92, 50, 14, 67, 75, 65, 93, 52, 66, 37, 24 |
     93, 45, 4, 32, 33, 48, 78, 64, 11, 42, 60, 62, 88, 86, 7, 5, 61, 26, 6, 90 |
     16, 21, 76, 50, 39, 1, 73, 39, 40, 62, 78, 70, 70, 67, 11, 85, 18, 98, 99, 69 |
     99, 7, 55, 87, 64, 51, 90, 25, 95, 24, 80, 44, 13, 37, 8, 43, 59, 53, 4, 70 |
     80, 26, 79, 41, 77, 7, 99, 92, 78, 12, 30, 57, 59, 40, 29, 12, 18, 69, 79, 40 |
     3, 65, 47, 55, 59, 12, 77, 12, 40, 41, 41, 65, 52, 54, 27, 88, 73, 14, 54, 68 |
     61, 42, 43, 38, 82, 26, 98, 92, 30, 80, 88, 4, 55, 21, 43, 25, 75, 60, 49, 95 |
     50, 21, 51, 62, 46, 46, 30, 51, 88, 58, 69, 19, 9, 18, 39, 27, 62, 79, 95, 80 |
     13, 59, 35, 54, 78, 10, 99, 92, 84, 40, 56, 69, 11, 73, 17, 70, 60, 96, 83, 52 |
     71, 13, 49, 38, 39, 37, 1, 29, 62, 20, 66, 85, 67, 48, 97, 42, 8, 12, 27, 97 |
     42, 13, 41, 66, 6, 21, 64, 27, 29, 55, 59, 7, 95, 71, 19, 81, 98, 13, 94, 11 |
     80, 63, 74, 17, 43, 88, 12, 40, 58, 67, 21, 86, 88, 7, 99, 69, 37, 15, 93, 15 |
     69, 76, 95, 70, 71, 27, 52, 27, 40, 64, 41, 33, 34, 44, 77, 89, 10, 29, 84, 48 |
     66, 18, 52, 36, 37, 16, 43, 4, 37, 83, 56, 83, 43, 26, 98, 28, 16, 52, 68, 21 |
     98, 99, 23, 57, 31, 91, 22, 5, 19, 76, 3, 37, 93, 84, 53, 45, 93, 76, 32, 8 |
     67, 33, 46, 84, 20, 96, 70, 50, 31, 40, 91, 76, 25, 21, 63, 39, 85, 49, 91, 98 |
     67, 82, 5, 49, 57, 71, 40, 55, 57, 61, 90, 98, 80, 38, 51, 87, 80, 70, 17, 47 |
     39, 37, 11, 6, 19, 86, 28, 27, 70, 55, 69, 87, 78, 77, 92, 2, 11, 54, 39, 6 |
     29, 23, 54, 15, 95, 16, 5, 87, 89, 39, 7, 88, 46, 15, 11, 28, 5, 68, 13, 66 |
     3, 35, 29, 5, 12, 40, 20, 12, 5, 68, 34, 79, 63, 43, 93, 78, 24, 53, 67, 33 |
     37, 1, 92, 10, 52, 88, 26, 76, 51, 93, 68, 20, 49, 36, 68, 3, 28, 98, 99, 92 |
     81, 79, 50, 29, 53, 95, 14, 61, 83, 44, 1, 59, 36, 22, 75, 30, 55, 70, 10, 94 |
     71, 71, 52, 15, 36, 24, 94, 70, 22, 27, 15, 67, 12, 27, 13, 39, 14, 14, 2, 54 |
     28, 24, 14, 4, 73, 58, 75, 21, 88, 42, 23, 43, 8, 83, 5, 71, 65, 54, 60, 75 |
     99, 57, 70, 91, 31, 32, 91, 66, 22, 41, 52, 26, 24, 33, 79, 44, 1, 64, 10, 89 |
     77, 9, 26, 17, 62, 93, 21, 9, 11, 82, 66, 80, 71, 49, 42, 65, 44, 78, 74, 26 |
     60, 35, 84, 85, 72, 41, 40, 26, 30, 76, 98, 2, 5, 68, 56, 28, 42, 2, 58, 18 |
     84, 66, 16, 85, 51, 47, 83, 30, 56, 21, 70, 22, 31, 53, 79, 99, 34, 39, 7, 49 |
     90, 77, 33, 31, 48, 57, 51, 47, 86, 87, 83, 13, 56, 75, 37, 66, 91, 60, 95, 95 |
     29, 30, 21, 71, 94, 57, 85, 69, 28, 84, 45, 48, 41, 14, 47, 93, 81, 53, 60, 57 |
     56, 67, 53, 48, 71, 2, 28, 3, 25, 77, 62, 40, 79, 79, 82, 71, 91, 98, 57, 71 |
     35, 27, 94, 23, 15, 1, 40, 13, 80, 39, 72, 77, 26, 91, 21, 82, 70, 93, 99, 34 |
     74, 68, 70, 7, 18, 50, 93, 33, 57, 22, 98, 13, 48, 26, 14, 84, 61, 88, 73, 42 |
     48, 4, 89, 96, 99, 76, 35, 2, 19, 73, 99, 3, 15, 92, 33, 72, 25, 71, 11, 26 |
     49, 67, 2, 92, 30, 19, 43, 76, 85, 88, 95, 58, 96, 83, 94, 19, 60, 50, 24, 2 |
     28, 26, 99, 61, 80, 62, 42, 75, 94, 36, 67, 74, 64, 8, 6, 64, 16, 78, 51, 81 |
     36, 16, 75, 29, 23, 38, 33, 57, 48, 91, 60, 72, 93, 67, 6, 28, 8, 83, 14, 91 |
     95, 80, 88, 89, 16, 84, 62, 78, 57, 12, 63, 75, 6, 15, 44, 79, 52, 47, 69, 25 |
     38, 83, 75, 72, 3, 80, 29, 74, 68, 63, 5, 64, 65, 58, 66, 52, 23, 30, 10, 77 |
     24, 24, 62, 36, 40, 37, 28, 11, 70, 37, 47, 64, 13, 92, 53, 83, 51, 54, 20, 36 |
     61, 92, 56, 13, 43, 92, 89, 66, 25, 75, 37, 12, 93, 85, 11, 3, 36, 45, 67, 68 |
     43, 43, 54, 15, 26, 17, 50, 96, 58, 68, 64, 77, 12, 86, 57, 12, 87, 26, 76, 19 |
     23, 92, 58, 24, 9, 39, 35, 94, 25, 74, 80, 76, 84, 12, 51, 57, 45, 65, 67, 46 |
     46, 9, 31, 82, 79, 55, 40, 17, 70, 46, 52, 29, 35, 45, 8, 39, 54, 92, 54, 40 |
     97, 73, 17, 77, 42, 21, 3, 27, 34, 14, 30, 77, 6, 57, 68, 16, 36, 79, 20, 67 |
     43, 36, 78, 94, 20, 1, 40, 19, 91, 27, 73, 54, 87, 77, 69, 93, 99, 2, 3, 70 |
     76, 17, 78, 9, 11, 13, 18, 86, 12, 35, 3, 89, 74, 85, 29, 18, 75, 46, 49, 96 |
     89, 91, 48, 60, 59, 47, 77, 69, 3, 15, 16, 63, 86, 8, 74, 42, 33, 61, 52, 17 |
     70, 48, 29, 35, 42, 35, 25, 39, 36, 52, 3, 4, 97, 76, 10, 39, 73, 95, 79, 89 |
     72, 30, 14, 75, 61, 70, 36, 84, 84, 37, 48, 81, 2, 10, 21, 19, 48, 37, 23, 93 |
     18, 38, 25, 35, 30, 63, 63, 53, 79, 17, 95, 18, 91, 87, 15, 61, 45, 5, 33, 25 |
     57, 91, 12, 21, 14, 10, 21, 99, 37, 97, 54, 4, 5, 30, 16, 38, 68, 38, 13, 73 |
     42, 50, 42, 85, 14, 67, 36, 86, 23, 1, 95, 54, 50, 21, 25, 14, 90, 10, 1, 49 |
     84, 88, 79, 26, 31, 66, 53, 77, 80, 48, 84, 30, 83, 12, 76, 87, 74, 35, 49, 82 |
     31, 17, 79, 38, 66, 14, 93, 93, 21, 97, 4, 57, 75, 45, 3, 53, 82, 87, 21, 74 |
     59, 84, 57, 85, 52, 50, 2, 11, 90, 95, 15, 44, 5, 68, 45, 49, 16, 16, 67, 73 |];

mc = [| 12, 6, 3, 10, 19, 17, 11, 4, 20, 16, 7, 5, 8, 15, 9, 18, 2, 14, 13, 1 |
      18, 15, 8, 14, 12, 13, 17, 4, 11, 10, 2, 1, 5, 9, 16, 3, 20, 19, 7, 6 |
      4, 17, 5, 16, 1, 13, 10, 19, 6, 11, 2, 7, 9, 14, 15, 8, 20, 18, 12, 3 |
      13, 4, 18, 10, 8, 17, 16, 20, 19, 7, 2, 15, 12, 9, 3, 5, 6, 11, 14, 1 |
      19, 3, 1, 8, 13, 6, 5, 11, 14, 9, 17, 20, 7, 16, 2, 10, 18, 12, 15, 4 |
      8, 3, 9, 6, 19, 12, 5, 16, 4, 15, 18, 17, 14, 10, 2, 13, 1, 20, 11, 7 |
      15, 7, 8, 9, 17, 5, 18, 12, 19, 11, 10, 20, 6, 3, 13, 4, 16, 2, 1, 14 |
      20, 6, 13, 17, 11, 1, 3, 4, 19, 5, 18, 10, 14, 16, 8, 15, 2, 9, 12, 7 |
      18, 13, 4, 17, 9, 20, 5, 15, 1, 16, 2, 11, 3, 10, 12, 7, 19, 14, 8, 6 |
      9, 1, 16, 3, 5, 11, 7, 14, 17, 13, 15, 8, 4, 20, 19, 2, 6, 10, 18, 12 |
      13, 9, 20, 3, 19, 10, 16, 11, 14, 5, 17, 15, 2, 8, 7, 1, 12, 4, 18, 6 |
      8, 16, 20, 7, 19, 11, 1, 18, 15, 3, 5, 12, 17, 2, 14, 9, 10, 4, 13, 6 |
      19, 3, 11, 16, 2, 6, 7, 1, 17, 10, 8, 15, 14, 4, 18, 12, 5, 20, 13, 9 |
      1, 15, 19, 6, 7, 2, 4, 9, 13, 16, 18, 8, 20, 10, 14, 11, 17, 12, 5, 3 |
      9, 16, 18, 13, 5, 3, 6, 15, 1, 19, 14, 2, 11, 8, 7, 10, 20, 4, 17, 12 |
      16, 6, 15, 12, 9, 10, 20, 11, 13, 5, 18, 17, 4, 19, 7, 3, 1, 2, 14, 8 |
      6, 2, 11, 3, 18, 14, 7, 12, 10, 1, 4, 5, 13, 20, 19, 9, 8, 15, 16, 17 |
      1, 9, 3, 16, 8, 19, 5, 15, 13, 4, 18, 14, 2, 10, 20, 12, 17, 11, 6, 7 |
      3, 5, 11, 16, 12, 2, 14, 17, 10, 8, 6, 9, 13, 1, 4, 20, 19, 15, 7, 18 |
      7, 11, 16, 18, 3, 14, 5, 13, 2, 4, 15, 17, 8, 6, 9, 12, 1, 19, 10, 20 |
      10, 19, 6, 3, 2, 11, 4, 18, 20, 7, 14, 15, 5, 16, 12, 1, 8, 13, 9, 17 |
      15, 7, 8, 19, 3, 12, 16, 9, 4, 6, 13, 10, 17, 18, 2, 5, 1, 11, 20, 14 |
      6, 17, 1, 13, 8, 20, 15, 5, 14, 9, 11, 3, 19, 10, 16, 4, 2, 18, 7, 12 |
      17, 6, 7, 5, 19, 16, 4, 14, 2, 20, 9, 8, 11, 12, 15, 18, 3, 10, 1, 13 |
      11, 20, 16, 4, 6, 19, 17, 2, 10, 1, 14, 13, 5, 9, 7, 8, 15, 3, 18, 12 |
      7, 17, 13, 10, 4, 3, 16, 2, 15, 12, 8, 14, 11, 19, 5, 20, 1, 9, 6, 18 |
      17, 3, 15, 1, 7, 10, 18, 2, 5, 13, 20, 11, 8, 6, 4, 16, 14, 9, 19, 12 |
      19, 8, 9, 5, 18, 16, 17, 13, 10, 2, 14, 1, 3, 7, 4, 6, 11, 20, 15, 12 |
      8, 16, 5, 19, 12, 1, 11, 17, 6, 13, 7, 3, 9, 4, 20, 2, 15, 10, 14, 18 |
      15, 20, 2, 1, 8, 4, 3, 16, 5, 9, 10, 18, 7, 17, 11, 6, 19, 12, 14, 13 |
      9, 20, 11, 6, 10, 4, 3, 19, 2, 5, 14, 17, 18, 8, 13, 15, 16, 1, 7, 12 |
      20, 12, 4, 5, 9, 15, 11, 18, 10, 16, 1, 7, 17, 14, 8, 6, 13, 19, 3, 2 |
      6, 10, 18, 2, 19, 15, 8, 9, 12, 16, 11, 13, 5, 3, 7, 17, 1, 14, 4, 20 |
      11, 10, 1, 16, 17, 5, 18, 14, 6, 19, 4, 7, 20, 2, 8, 3, 15, 9, 13, 12 |
      4, 9, 2, 12, 7, 10, 13, 16, 5, 11, 8, 20, 19, 3, 14, 6, 17, 18, 15, 1 |
      9, 14, 10, 20, 19, 6, 2, 17, 5, 15, 1, 8, 12, 13, 3, 16, 18, 11, 7, 4 |
      14, 4, 17, 19, 2, 8, 16, 3, 1, 7, 10, 6, 5, 12, 13, 20, 15, 9, 18, 11 |
      6, 19, 17, 11, 15, 8, 2, 1, 5, 13, 7, 14, 4, 10, 3, 9, 20, 18, 12, 16 |
      20, 16, 19, 10, 3, 9, 4, 2, 6, 15, 18, 8, 1, 12, 5, 14, 17, 7, 11, 13 |
      8, 5, 19, 17, 14, 7, 6, 16, 11, 13, 4, 2, 18, 9, 12, 15, 1, 3, 20, 10 |
      2, 11, 7, 1, 14, 20, 17, 9, 5, 3, 4, 8, 18, 16, 12, 15, 13, 19, 10, 6 |
      12, 14, 8, 20, 1, 2, 17, 6, 7, 9, 3, 10, 19, 5, 4, 13, 16, 11, 18, 15 |
      5, 18, 16, 10, 17, 19, 20, 6, 15, 9, 13, 4, 11, 8, 3, 12, 2, 14, 1, 7 |
      3, 14, 8, 12, 17, 7, 10, 15, 18, 2, 11, 4, 9, 19, 6, 1, 20, 13, 16, 5 |
      11, 12, 14, 8, 1, 2, 7, 18, 15, 16, 17, 3, 19, 13, 9, 4, 6, 20, 5, 10 |
      18, 19, 13, 12, 2, 20, 16, 3, 15, 14, 6, 7, 4, 5, 10, 1, 8, 11, 17, 9 |
      15, 18, 17, 3, 8, 14, 6, 5, 19, 2, 11, 1, 4, 10, 7, 12, 9, 20, 16, 13 |
      5, 4, 3, 7, 2, 11, 20, 16, 14, 19, 1, 8, 18, 6, 13, 15, 9, 10, 17, 12 |
      9, 8, 2, 6, 5, 4, 19, 17, 13, 12, 18, 3, 11, 7, 20, 10, 14, 1, 16, 15 |
      8, 2, 17, 7, 3, 11, 6, 15, 12, 10, 9, 19, 14, 1, 18, 16, 13, 20, 5, 4 |
      7, 8, 4, 17, 3, 13, 6, 20, 11, 15, 18, 19, 14, 12, 1, 9, 2, 10, 16, 5 |
      19, 3, 2, 5, 20, 8, 10, 14, 16, 13, 6, 4, 18, 17, 1, 12, 15, 11, 7, 9 |
      12, 13, 19, 20, 5, 18, 15, 7, 8, 10, 9, 2, 17, 16, 11, 14, 4, 1, 6, 3 |
      16, 6, 20, 18, 9, 19, 5, 12, 17, 13, 2, 1, 3, 8, 4, 10, 11, 14, 15, 7 |
      7, 5, 11, 12, 18, 9, 3, 13, 17, 20, 8, 14, 1, 10, 16, 19, 6, 15, 4, 2 |
      20, 5, 4, 17, 15, 16, 7, 8, 19, 9, 1, 10, 3, 12, 18, 13, 14, 11, 2, 6 |
      17, 20, 3, 10, 7, 4, 16, 1, 9, 15, 12, 13, 2, 6, 18, 19, 11, 8, 14, 5 |
      18, 19, 3, 15, 14, 13, 8, 10, 6, 20, 7, 2, 4, 17, 1, 5, 12, 16, 11, 9 |
      4, 5, 3, 13, 6, 11, 9, 18, 10, 8, 7, 20, 14, 16, 19, 17, 1, 15, 2, 12 |
      12, 16, 5, 11, 18, 13, 7, 3, 17, 15, 2, 6, 9, 1, 19, 8, 4, 10, 14, 20 |
      20, 18, 4, 17, 13, 9, 19, 14, 5, 12, 15, 1, 7, 6, 3, 8, 11, 16, 10, 2 |
      19, 3, 7, 8, 4, 15, 6, 11, 1, 5, 17, 13, 14, 2, 9, 12, 16, 20, 18, 10 |
      10, 5, 16, 2, 19, 4, 3, 11, 12, 6, 13, 7, 15, 20, 17, 18, 1, 8, 14, 9 |
      1, 6, 5, 14, 3, 8, 16, 2, 15, 19, 10, 20, 12, 13, 11, 4, 17, 9, 7, 18 |
      6, 5, 11, 16, 12, 15, 19, 4, 20, 3, 10, 18, 14, 1, 17, 2, 13, 7, 8, 9 |
      20, 19, 10, 16, 3, 5, 17, 14, 9, 4, 2, 12, 1, 18, 6, 7, 8, 13, 15, 11 |
      5, 20, 16, 3, 19, 1, 8, 2, 9, 17, 11, 15, 7, 13, 12, 4, 14, 6, 10, 18 |
      17, 7, 13, 18, 4, 12, 14, 6, 8, 9, 2, 5, 19, 16, 20, 11, 3, 1, 15, 10 |
      6, 17, 7, 5, 11, 8, 15, 12, 14, 1, 13, 4, 10, 19, 3, 9, 16, 2, 20, 18 |
      12, 6, 18, 2, 15, 5, 19, 11, 20, 7, 4, 9, 3, 10, 8, 17, 1, 16, 13, 14 |
      5, 10, 18, 16, 17, 6, 15, 2, 14, 8, 12, 19, 1, 11, 20, 4, 7, 13, 3, 9 |
      4, 9, 1, 17, 6, 5, 18, 2, 8, 19, 15, 11, 12, 3, 20, 7, 14, 16, 13, 10 |
      16, 12, 6, 14, 15, 2, 3, 13, 8, 7, 11, 9, 5, 1, 19, 20, 17, 18, 4, 10 |
      5, 7, 11, 1, 18, 14, 12, 3, 17, 19, 2, 15, 16, 10, 9, 8, 4, 13, 6, 20 |
      2, 7, 13, 14, 11, 16, 8, 4, 12, 15, 20, 10, 9, 17, 5, 18, 6, 3, 1, 19 |
      16, 12, 9, 10, 4, 8, 11, 1, 15, 3, 7, 6, 17, 2, 13, 5, 19, 20, 18, 14 |
      7, 14, 11, 16, 1, 6, 19, 15, 5, 4, 10, 20, 9, 13, 12, 18, 8, 2, 17, 3 |
      10, 9, 12, 13, 1, 16, 19, 15, 11, 14, 5, 4, 7, 2, 20, 17, 3, 8, 18, 6 |
      8, 19, 6, 3, 11, 18, 12, 4, 16, 14, 13, 9, 20, 15, 2, 7, 5, 1, 10, 17 |
      4, 20, 7, 15, 18, 9, 8, 17, 10, 13, 6, 3, 12, 2, 16, 19, 5, 14, 1, 11 |
      2, 1, 17, 8, 14, 6, 11, 19, 10, 4, 20, 18, 15, 16, 13, 12, 5, 9, 7, 3 |
      1, 2, 4, 12, 10, 5, 8, 14, 7, 9, 19, 13, 15, 6, 16, 18, 17, 3, 20, 11 |
      3, 5, 13, 17, 18, 6, 4, 8, 15, 10, 16, 19, 7, 14, 2, 12, 9, 11, 1, 20 |
      1, 9, 7, 3, 20, 19, 6, 5, 8, 11, 16, 2, 17, 4, 15, 18, 12, 14, 10, 13 |
      19, 3, 5, 13, 16, 8, 6, 11, 4, 7, 15, 1, 20, 17, 10, 9, 2, 18, 12, 14 |
      5, 6, 16, 1, 14, 20, 8, 3, 19, 7, 12, 11, 13, 17, 18, 4, 2, 10, 9, 15 |
      18, 9, 16, 2, 11, 10, 1, 5, 14, 13, 15, 19, 8, 6, 4, 3, 12, 20, 7, 17 |
      5, 14, 17, 19, 15, 11, 16, 2, 9, 20, 13, 1, 7, 6, 10, 3, 8, 4, 12, 18 |
      5, 18, 15, 6, 7, 19, 16, 20, 13, 14, 1, 8, 3, 9, 4, 2, 10, 12, 17, 11 |
      10, 12, 20, 18, 7, 3, 13, 15, 8, 1, 17, 6, 2, 5, 11, 19, 16, 9, 4, 14 |
      12, 10, 18, 9, 2, 1, 3, 13, 19, 15, 17, 6, 20, 7, 4, 14, 16, 11, 5, 8 |
      11, 14, 6, 13, 2, 3, 19, 18, 15, 9, 5, 20, 4, 1, 17, 7, 12, 10, 8, 16 |
      4, 18, 8, 7, 3, 9, 11, 6, 2, 16, 17, 5, 15, 12, 10, 14, 1, 19, 20, 13 |
      8, 12, 4, 11, 15, 19, 1, 14, 7, 5, 9, 6, 20, 2, 18, 13, 10, 16, 17, 3 |
      3, 7, 19, 4, 13, 14, 10, 9, 16, 8, 1, 2, 15, 20, 11, 17, 12, 6, 18, 5 |
      15, 8, 18, 7, 16, 14, 20, 6, 1, 10, 11, 9, 13, 2, 19, 4, 3, 12, 5, 17 |
      9, 15, 5, 17, 10, 7, 1, 18, 19, 12, 14, 13, 3, 20, 11, 8, 16, 2, 4, 6 |
      20, 4, 3, 11, 1, 2, 7, 16, 13, 17, 8, 5, 6, 19, 10, 18, 14, 15, 9, 12 |
      1, 18, 20, 17, 19, 4, 8, 13, 7, 10, 14, 6, 9, 11, 16, 3, 12, 15, 5, 2 |
      8, 19, 1, 15, 6, 5, 12, 14, 11, 16, 17, 13, 2, 3, 7, 4, 10, 18, 9, 20 |];
