n = 15;
m = 15;

d = [| 97, 35, 7, 48, 21, 9, 98, 55, 49, 19, 72, 77, 68, 50, 30 |
     49, 28, 37, 58, 17, 22, 80, 85, 69, 70, 60, 96, 32, 53, 96 |
     49, 37, 50, 77, 3, 29, 59, 35, 40, 24, 74, 25, 67, 24, 18 |
     4, 43, 56, 82, 61, 60, 57, 27, 27, 34, 55, 35, 44, 10, 66 |
     35, 61, 89, 11, 3, 50, 14, 20, 2, 97, 46, 59, 8, 44, 61 |
     21, 56, 75, 83, 38, 49, 65, 8, 26, 24, 13, 52, 19, 70, 50 |
     69, 63, 41, 3, 69, 31, 8, 21, 49, 35, 19, 83, 52, 14, 86 |
     75, 60, 22, 86, 88, 55, 43, 83, 40, 41, 70, 22, 47, 22, 49 |
     22, 49, 28, 2, 88, 80, 21, 95, 97, 71, 78, 6, 45, 22, 89 |
     76, 78, 68, 75, 82, 99, 89, 96, 97, 51, 38, 69, 76, 26, 49 |
     25, 73, 81, 91, 58, 72, 6, 42, 51, 32, 74, 72, 31, 13, 56 |
     73, 28, 96, 59, 96, 80, 5, 85, 63, 52, 74, 89, 20, 49, 36 |
     54, 18, 31, 42, 53, 49, 29, 14, 10, 73, 35, 3, 70, 19, 22 |
     53, 16, 92, 36, 55, 33, 46, 15, 86, 57, 41, 2, 9, 3, 73 |
     30, 76, 97, 37, 79, 73, 25, 12, 88, 18, 50, 12, 36, 10, 60 |];

mc = [| 13, 3, 9, 2, 14, 1, 4, 15, 7, 8, 11, 6, 12, 10, 5 |
      8, 2, 9, 15, 14, 3, 6, 11, 4, 5, 13, 7, 1, 12, 10 |
      6, 9, 5, 13, 4, 11, 2, 12, 7, 3, 14, 15, 1, 10, 8 |
      1, 4, 12, 2, 10, 7, 6, 8, 3, 11, 15, 13, 14, 9, 5 |
      15, 7, 10, 13, 2, 4, 6, 11, 9, 5, 1, 12, 8, 3, 14 |
      14, 10, 15, 2, 3, 7, 4, 12, 6, 11, 5, 8, 9, 13, 1 |
      14, 2, 10, 12, 6, 15, 13, 4, 11, 8, 9, 3, 1, 7, 5 |
      3, 10, 11, 1, 7, 12, 14, 2, 4, 15, 6, 8, 13, 5, 9 |
      13, 1, 9, 10, 7, 12, 3, 4, 8, 6, 14, 5, 2, 15, 11 |
      11, 5, 7, 14, 10, 12, 6, 8, 1, 3, 4, 9, 15, 13, 2 |
      6, 12, 8, 2, 15, 11, 4, 1, 10, 5, 14, 9, 7, 13, 3 |
      14, 13, 12, 4, 1, 3, 6, 2, 10, 8, 15, 11, 5, 9, 7 |
      14, 5, 12, 9, 11, 15, 7, 2, 8, 1, 3, 6, 10, 4, 13 |
      6, 10, 7, 9, 11, 2, 5, 4, 1, 14, 12, 3, 13, 15, 8 |
      13, 5, 12, 15, 8, 1, 9, 10, 6, 14, 2, 4, 7, 3, 11 |];
