n = 50;
m = 15;

d = [| 89, 35, 52, 76, 78, 92, 44, 30, 34, 29, 42, 60, 60, 43, 54 |
     15, 79, 89, 51, 87, 86, 35, 77, 29, 92, 24, 9, 83, 1, 13 |
     9, 41, 45, 40, 58, 49, 39, 65, 89, 18, 31, 47, 65, 55, 64 |
     44, 92, 66, 2, 37, 41, 80, 37, 99, 56, 21, 45, 37, 23, 42 |
     58, 55, 75, 17, 51, 15, 22, 37, 84, 51, 29, 40, 87, 77, 59 |
     34, 15, 28, 68, 24, 61, 17, 98, 95, 26, 82, 3, 56, 26, 40 |
     74, 33, 96, 58, 68, 81, 42, 94, 37, 74, 22, 67, 85, 21, 1 |
     70, 90, 56, 21, 55, 19, 74, 79, 11, 75, 84, 42, 85, 90, 9 |
     4, 88, 78, 80, 63, 71, 32, 13, 82, 4, 17, 88, 46, 65, 39 |
     4, 14, 24, 65, 89, 19, 22, 65, 24, 63, 17, 23, 41, 7, 42 |
     4, 76, 33, 89, 4, 80, 91, 82, 54, 30, 1, 93, 76, 6, 54 |
     80, 51, 69, 24, 49, 64, 53, 26, 73, 70, 56, 54, 38, 56, 25 |
     75, 48, 10, 53, 36, 56, 5, 62, 41, 5, 44, 86, 2, 47, 21 |
     75, 6, 72, 8, 70, 95, 94, 64, 2, 2, 70, 74, 25, 31, 15 |
     9, 16, 35, 84, 11, 38, 97, 89, 21, 34, 4, 83, 16, 41, 90 |
     92, 31, 11, 17, 50, 2, 65, 33, 62, 18, 14, 63, 82, 43, 59 |
     16, 43, 7, 87, 85, 44, 14, 6, 78, 77, 36, 24, 2, 34, 17 |
     89, 34, 39, 1, 37, 54, 75, 11, 48, 33, 79, 46, 84, 95, 20 |
     24, 16, 39, 67, 44, 70, 73, 9, 88, 16, 55, 52, 83, 15, 82 |
     1, 30, 77, 17, 1, 2, 99, 84, 26, 43, 72, 66, 82, 96, 64 |
     44, 28, 24, 35, 78, 44, 90, 82, 72, 93, 10, 23, 40, 11, 13 |
     32, 41, 38, 41, 51, 33, 23, 20, 55, 96, 16, 4, 24, 91, 64 |
     35, 63, 4, 91, 69, 61, 63, 84, 66, 11, 70, 12, 22, 46, 64 |
     32, 9, 78, 13, 91, 69, 30, 24, 5, 10, 43, 89, 3, 98, 36 |
     33, 40, 35, 8, 78, 54, 91, 7, 92, 93, 95, 47, 70, 66, 33 |
     5, 97, 16, 4, 1, 58, 40, 95, 55, 26, 13, 83, 14, 31, 55 |
     33, 67, 25, 99, 36, 43, 22, 54, 63, 41, 53, 67, 47, 49, 31 |
     88, 80, 62, 96, 89, 34, 33, 12, 29, 89, 11, 20, 71, 93, 22 |
     89, 6, 1, 58, 89, 84, 17, 66, 60, 63, 34, 94, 13, 4, 50 |
     81, 11, 70, 37, 68, 61, 60, 56, 10, 20, 32, 65, 91, 77, 72 |
     63, 48, 77, 39, 15, 42, 31, 31, 22, 16, 10, 10, 47, 32, 89 |
     27, 27, 86, 67, 7, 89, 90, 62, 33, 66, 6, 78, 43, 9, 6 |
     67, 70, 98, 15, 40, 25, 62, 78, 9, 36, 1, 24, 90, 71, 37 |
     33, 6, 2, 86, 38, 25, 59, 36, 25, 70, 97, 89, 96, 3, 4 |
     14, 4, 32, 86, 75, 87, 17, 56, 99, 97, 73, 15, 36, 7, 80 |
     35, 42, 41, 58, 70, 42, 89, 24, 38, 8, 57, 35, 92, 28, 98 |
     60, 78, 54, 31, 85, 8, 19, 23, 46, 90, 46, 67, 53, 83, 7 |
     52, 60, 52, 30, 10, 75, 76, 16, 87, 96, 3, 46, 33, 72, 92 |
     82, 33, 2, 25, 53, 25, 84, 43, 75, 35, 85, 95, 73, 41, 7 |
     47, 41, 20, 90, 27, 47, 78, 44, 99, 77, 10, 36, 57, 33, 72 |
     64, 67, 13, 62, 63, 15, 7, 16, 38, 48, 82, 3, 60, 5, 99 |
     63, 52, 4, 99, 83, 18, 19, 96, 19, 65, 50, 35, 24, 28, 78 |
     75, 24, 85, 56, 61, 38, 7, 38, 41, 29, 35, 98, 5, 92, 78 |
     90, 36, 87, 89, 36, 39, 58, 63, 29, 88, 43, 66, 71, 4, 26 |
     45, 17, 65, 42, 60, 6, 47, 80, 37, 91, 9, 23, 19, 64, 97 |
     74, 25, 29, 51, 49, 32, 49, 16, 37, 88, 46, 49, 46, 25, 14 |
     53, 32, 52, 36, 43, 41, 39, 66, 37, 8, 40, 18, 59, 45, 66 |
     52, 79, 97, 99, 53, 58, 61, 50, 39, 87, 37, 13, 90, 3, 69 |
     40, 99, 84, 8, 58, 56, 27, 93, 92, 66, 2, 74, 29, 43, 50 |
     11, 61, 57, 71, 82, 13, 79, 52, 10, 84, 30, 63, 51, 17, 47 |];

mc = [| 6, 13, 8, 3, 12, 2, 7, 14, 4, 9, 5, 1, 11, 10, 15 |
      7, 12, 9, 3, 2, 4, 15, 1, 8, 11, 13, 5, 14, 6, 10 |
      3, 5, 14, 13, 6, 11, 15, 7, 12, 1, 9, 8, 2, 4, 10 |
      2, 8, 7, 15, 12, 9, 1, 4, 5, 13, 6, 14, 11, 3, 10 |
      10, 15, 11, 6, 12, 3, 2, 4, 7, 8, 14, 1, 13, 9, 5 |
      3, 4, 13, 5, 1, 10, 6, 7, 2, 15, 12, 9, 14, 8, 11 |
      13, 1, 15, 5, 3, 4, 8, 10, 2, 6, 14, 7, 12, 9, 11 |
      4, 2, 10, 9, 13, 6, 8, 1, 5, 7, 11, 14, 12, 3, 15 |
      4, 11, 7, 14, 3, 8, 1, 6, 13, 9, 15, 10, 12, 2, 5 |
      1, 9, 10, 14, 12, 13, 5, 15, 3, 4, 6, 8, 2, 7, 11 |
      7, 5, 15, 3, 8, 12, 11, 1, 6, 4, 2, 10, 13, 9, 14 |
      10, 14, 9, 8, 6, 15, 1, 2, 5, 11, 13, 12, 4, 3, 7 |
      13, 9, 4, 3, 7, 15, 1, 14, 12, 10, 2, 5, 8, 11, 6 |
      9, 1, 11, 4, 6, 7, 8, 2, 5, 14, 13, 12, 15, 3, 10 |
      4, 10, 9, 2, 15, 11, 13, 3, 14, 12, 1, 8, 6, 7, 5 |
      11, 8, 2, 10, 13, 4, 12, 9, 6, 15, 5, 7, 1, 3, 14 |
      7, 2, 13, 11, 12, 15, 9, 8, 1, 6, 10, 14, 5, 4, 3 |
      11, 4, 10, 1, 3, 8, 5, 13, 6, 14, 2, 9, 12, 15, 7 |
      14, 11, 12, 4, 7, 5, 9, 6, 13, 15, 1, 8, 10, 2, 3 |
      15, 3, 12, 5, 1, 9, 14, 8, 11, 6, 7, 4, 10, 13, 2 |
      6, 7, 5, 9, 8, 1, 11, 4, 13, 14, 15, 10, 3, 2, 12 |
      9, 12, 4, 1, 14, 7, 10, 2, 13, 11, 8, 6, 5, 15, 3 |
      14, 7, 4, 6, 1, 3, 15, 13, 12, 5, 8, 10, 11, 9, 2 |
      2, 13, 8, 3, 12, 9, 5, 7, 10, 11, 4, 6, 15, 1, 14 |
      1, 8, 15, 13, 11, 14, 5, 10, 12, 7, 6, 3, 4, 9, 2 |
      12, 5, 8, 2, 1, 11, 6, 10, 9, 7, 14, 15, 4, 3, 13 |
      2, 7, 11, 6, 10, 13, 8, 12, 14, 3, 4, 9, 5, 15, 1 |
      6, 14, 11, 8, 4, 12, 13, 5, 1, 9, 2, 7, 10, 15, 3 |
      14, 5, 13, 8, 6, 9, 3, 11, 15, 12, 1, 7, 4, 10, 2 |
      11, 6, 5, 14, 2, 1, 13, 3, 7, 10, 8, 9, 12, 15, 4 |
      14, 9, 4, 7, 15, 10, 5, 13, 11, 2, 1, 6, 12, 3, 8 |
      12, 7, 4, 2, 13, 14, 1, 5, 10, 3, 8, 15, 11, 9, 6 |
      2, 3, 6, 11, 10, 7, 1, 15, 13, 8, 4, 9, 12, 14, 5 |
      10, 6, 4, 8, 2, 13, 11, 14, 1, 12, 9, 7, 15, 3, 5 |
      3, 9, 2, 4, 7, 5, 14, 11, 8, 13, 1, 6, 15, 10, 12 |
      14, 10, 4, 6, 12, 13, 1, 8, 3, 7, 11, 9, 2, 5, 15 |
      7, 14, 3, 1, 4, 2, 5, 15, 6, 10, 13, 9, 11, 12, 8 |
      15, 10, 8, 6, 2, 13, 14, 12, 5, 11, 3, 9, 4, 1, 7 |
      8, 11, 3, 13, 10, 2, 1, 15, 6, 12, 5, 14, 9, 4, 7 |
      2, 12, 5, 3, 14, 15, 13, 9, 11, 8, 10, 7, 6, 1, 4 |
      15, 13, 1, 9, 3, 6, 2, 11, 12, 5, 4, 7, 14, 8, 10 |
      9, 14, 8, 11, 3, 7, 15, 10, 12, 6, 13, 2, 4, 1, 5 |
      1, 2, 14, 5, 6, 3, 15, 11, 13, 12, 7, 8, 9, 10, 4 |
      1, 8, 14, 9, 13, 12, 2, 7, 3, 6, 5, 4, 15, 11, 10 |
      1, 13, 14, 11, 4, 2, 5, 9, 15, 10, 3, 6, 8, 12, 7 |
      13, 8, 6, 1, 10, 14, 12, 3, 5, 11, 2, 4, 9, 7, 15 |
      13, 1, 4, 7, 5, 2, 9, 11, 3, 6, 10, 15, 12, 14, 8 |
      15, 2, 7, 9, 1, 13, 5, 11, 3, 6, 4, 8, 12, 10, 14 |
      5, 14, 10, 15, 13, 9, 1, 11, 3, 8, 12, 6, 2, 4, 7 |
      15, 10, 7, 13, 2, 14, 11, 3, 6, 1, 5, 12, 8, 4, 9 |];
