n = 20;
m = 15;

d = [| 16, 53, 83, 96, 64, 17, 21, 81, 85, 56, 88, 3, 24, 21, 97 |
     9, 1, 51, 97, 47, 88, 19, 82, 33, 53, 83, 18, 89, 73, 65 |
     86, 1, 90, 81, 74, 29, 44, 82, 24, 61, 78, 44, 63, 47, 77 |
     43, 55, 17, 51, 17, 33, 75, 32, 29, 92, 46, 30, 30, 5, 72 |
     94, 9, 98, 84, 54, 19, 39, 43, 36, 70, 66, 83, 14, 34, 11 |
     46, 81, 37, 90, 10, 84, 45, 11, 34, 39, 76, 82, 3, 13, 32 |
     58, 63, 76, 30, 20, 72, 65, 62, 66, 61, 55, 26, 8, 82, 92 |
     63, 70, 40, 53, 62, 10, 21, 17, 49, 8, 93, 90, 89, 32, 18 |
     74, 9, 39, 15, 17, 95, 58, 70, 88, 43, 20, 18, 54, 91, 58 |
     1, 45, 73, 99, 20, 45, 39, 29, 23, 45, 82, 18, 60, 17, 7 |
     19, 22, 79, 87, 38, 31, 37, 66, 57, 67, 36, 86, 7, 40, 72 |
     13, 59, 68, 11, 59, 26, 63, 51, 61, 85, 21, 58, 98, 59, 66 |
     3, 40, 17, 90, 86, 1, 29, 1, 82, 62, 19, 51, 87, 89, 12 |
     77, 19, 52, 62, 57, 13, 20, 89, 86, 40, 16, 80, 73, 80, 41 |
     47, 97, 18, 44, 36, 95, 91, 58, 22, 65, 68, 53, 12, 61, 48 |
     9, 76, 35, 91, 93, 3, 56, 89, 28, 15, 58, 1, 98, 82, 25 |
     3, 80, 37, 76, 96, 78, 13, 34, 24, 45, 70, 59, 40, 92, 94 |
     28, 97, 68, 16, 28, 17, 27, 2, 19, 96, 3, 49, 5, 76, 71 |
     39, 7, 38, 71, 15, 4, 49, 73, 76, 69, 27, 23, 14, 66, 32 |
     53, 95, 27, 57, 85, 1, 97, 95, 14, 59, 57, 81, 81, 50, 94 |];

mc = [| 5, 13, 10, 8, 3, 7, 4, 12, 1, 6, 9, 11, 2, 15, 14 |
      8, 10, 7, 3, 1, 6, 12, 15, 4, 9, 11, 14, 2, 13, 5 |
      9, 14, 12, 4, 11, 7, 2, 13, 15, 10, 6, 1, 3, 8, 5 |
      1, 3, 15, 2, 11, 8, 12, 9, 10, 13, 14, 4, 5, 7, 6 |
      11, 12, 6, 5, 15, 14, 2, 8, 3, 9, 10, 1, 13, 4, 7 |
      10, 1, 7, 9, 15, 6, 5, 11, 14, 3, 12, 13, 2, 4, 8 |
      7, 12, 4, 2, 10, 11, 9, 6, 1, 8, 3, 15, 13, 14, 5 |
      12, 6, 11, 14, 3, 8, 7, 10, 5, 4, 1, 15, 2, 13, 9 |
      15, 2, 3, 13, 11, 12, 8, 7, 1, 14, 6, 10, 4, 9, 5 |
      11, 10, 4, 9, 2, 7, 5, 13, 15, 8, 14, 12, 3, 6, 1 |
      11, 10, 14, 2, 4, 12, 6, 13, 1, 7, 8, 9, 5, 15, 3 |
      3, 10, 12, 7, 5, 15, 9, 8, 1, 2, 14, 6, 11, 13, 4 |
      14, 12, 15, 13, 9, 6, 5, 4, 7, 1, 11, 8, 10, 2, 3 |
      14, 3, 8, 4, 2, 11, 12, 9, 5, 10, 1, 7, 15, 6, 13 |
      4, 15, 12, 2, 5, 14, 9, 1, 6, 13, 7, 11, 3, 8, 10 |
      3, 2, 11, 15, 13, 10, 14, 9, 7, 5, 6, 1, 4, 12, 8 |
      1, 14, 4, 6, 12, 5, 2, 3, 10, 13, 8, 15, 9, 7, 11 |
      2, 10, 5, 4, 11, 12, 7, 13, 6, 15, 1, 9, 8, 14, 3 |
      4, 3, 5, 10, 11, 12, 7, 14, 9, 15, 6, 2, 13, 1, 8 |
      4, 11, 1, 2, 10, 13, 14, 9, 6, 7, 12, 8, 15, 5, 3 |];
