n = 30;
m = 20;

d = [| 44, 11, 94, 63, 74, 34, 34, 32, 99, 2, 41, 79, 96, 72, 34, 77, 54, 57, 54, 33 |
     28, 4, 73, 72, 62, 31, 6, 59, 53, 58, 39, 14, 15, 87, 46, 96, 89, 55, 76, 90 |
     25, 22, 90, 91, 10, 58, 2, 91, 88, 45, 51, 92, 27, 37, 34, 30, 72, 27, 46, 96 |
     11, 62, 30, 10, 15, 83, 52, 9, 51, 92, 78, 20, 4, 73, 50, 82, 16, 79, 64, 44 |
     93, 70, 76, 49, 58, 26, 89, 34, 67, 6, 93, 27, 46, 13, 32, 21, 49, 39, 89, 34 |
     66, 40, 61, 40, 17, 55, 82, 58, 42, 99, 2, 82, 44, 72, 5, 20, 25, 10, 41, 53 |
     34, 86, 23, 61, 73, 28, 51, 69, 97, 92, 17, 2, 88, 53, 97, 8, 12, 35, 77, 10 |
     85, 50, 73, 94, 81, 62, 13, 61, 97, 27, 90, 71, 52, 41, 36, 44, 65, 82, 60, 60 |
     20, 28, 80, 26, 3, 45, 91, 74, 4, 29, 51, 15, 73, 62, 94, 93, 97, 22, 53, 22 |
     65, 64, 46, 9, 75, 62, 61, 65, 17, 51, 46, 18, 70, 63, 34, 5, 91, 52, 88, 56 |
     76, 51, 77, 83, 8, 13, 89, 61, 47, 90, 73, 56, 62, 80, 24, 72, 93, 36, 56, 12 |
     72, 46, 83, 14, 84, 67, 25, 32, 61, 59, 38, 93, 54, 46, 55, 59, 41, 60, 6, 46 |
     28, 1, 67, 21, 10, 95, 68, 85, 96, 48, 9, 95, 80, 51, 54, 10, 58, 27, 24, 33 |
     65, 11, 57, 91, 24, 4, 3, 10, 51, 40, 39, 6, 64, 68, 37, 85, 83, 85, 4, 78 |
     29, 21, 24, 74, 31, 10, 21, 40, 60, 11, 43, 17, 69, 56, 83, 54, 87, 46, 3, 29 |
     48, 7, 25, 60, 35, 80, 81, 67, 70, 2, 96, 65, 29, 13, 38, 42, 60, 4, 95, 30 |
     17, 37, 9, 17, 48, 53, 72, 8, 73, 79, 39, 95, 93, 28, 79, 60, 44, 71, 99, 78 |
     10, 20, 27, 69, 74, 8, 43, 70, 49, 51, 7, 26, 91, 59, 23, 62, 49, 72, 27, 59 |
     57, 8, 63, 79, 91, 99, 57, 39, 82, 5, 10, 32, 21, 12, 22, 3, 96, 45, 95, 67 |
     87, 68, 62, 38, 67, 40, 13, 92, 53, 22, 74, 13, 30, 53, 25, 9, 40, 11, 66, 54 |
     55, 68, 4, 44, 71, 65, 53, 74, 99, 39, 92, 48, 82, 85, 76, 61, 58, 34, 71, 91 |
     99, 59, 69, 78, 55, 62, 60, 33, 10, 79, 60, 75, 15, 74, 60, 43, 25, 80, 97, 42 |
     78, 19, 91, 15, 3, 39, 52, 74, 7, 89, 99, 15, 26, 40, 49, 66, 72, 21, 33, 69 |
     75, 62, 75, 63, 56, 58, 50, 22, 15, 40, 46, 66, 20, 76, 5, 72, 26, 9, 67, 76 |
     29, 58, 75, 42, 3, 63, 58, 39, 24, 7, 1, 81, 28, 64, 87, 49, 37, 26, 41, 12 |
     87, 20, 93, 48, 68, 61, 61, 28, 5, 6, 37, 69, 58, 57, 8, 66, 92, 41, 35, 13 |
     85, 81, 93, 20, 64, 30, 31, 61, 98, 69, 51, 73, 82, 70, 39, 4, 34, 3, 49, 4 |
     69, 5, 68, 52, 91, 64, 14, 72, 78, 41, 50, 80, 41, 65, 13, 76, 36, 14, 9, 83 |
     40, 62, 15, 47, 74, 5, 71, 34, 20, 90, 13, 16, 20, 35, 33, 45, 1, 27, 73, 65 |
     99, 72, 27, 62, 49, 43, 9, 80, 31, 71, 75, 39, 39, 17, 51, 63, 40, 22, 62, 83 |];

mc = [| 10, 9, 4, 18, 20, 1, 6, 7, 19, 2, 15, 13, 5, 8, 14, 17, 11, 16, 12, 3 |
      14, 13, 9, 1, 18, 12, 11, 3, 8, 19, 17, 5, 15, 6, 16, 2, 7, 10, 20, 4 |
      20, 8, 11, 2, 13, 17, 4, 7, 16, 6, 14, 10, 18, 15, 5, 1, 9, 3, 12, 19 |
      18, 19, 10, 15, 13, 5, 9, 12, 7, 16, 1, 20, 4, 11, 6, 3, 8, 14, 17, 2 |
      6, 17, 3, 19, 9, 1, 7, 5, 16, 10, 2, 4, 14, 11, 12, 8, 13, 18, 15, 20 |
      1, 11, 3, 4, 6, 19, 13, 2, 9, 12, 10, 16, 7, 8, 5, 17, 14, 15, 18, 20 |
      11, 12, 3, 16, 14, 4, 9, 1, 6, 18, 8, 15, 10, 7, 19, 5, 2, 13, 17, 20 |
      15, 10, 5, 20, 1, 13, 3, 6, 12, 19, 17, 11, 7, 16, 8, 14, 18, 9, 2, 4 |
      20, 12, 2, 16, 7, 13, 10, 3, 1, 6, 8, 9, 11, 15, 4, 18, 5, 17, 19, 14 |
      17, 20, 14, 19, 1, 15, 7, 13, 2, 11, 18, 4, 5, 16, 10, 12, 6, 8, 3, 9 |
      9, 5, 7, 3, 8, 13, 11, 12, 1, 17, 4, 14, 2, 10, 15, 20, 18, 6, 16, 19 |
      17, 12, 15, 6, 16, 9, 3, 5, 19, 18, 4, 2, 20, 14, 11, 1, 8, 13, 10, 7 |
      3, 7, 1, 20, 13, 10, 6, 9, 19, 2, 16, 12, 8, 17, 5, 14, 18, 11, 15, 4 |
      1, 20, 12, 17, 18, 5, 3, 15, 2, 19, 7, 8, 13, 10, 9, 11, 6, 16, 14, 4 |
      2, 15, 3, 16, 7, 11, 8, 12, 9, 20, 5, 10, 18, 13, 1, 19, 17, 14, 6, 4 |
      3, 5, 11, 1, 13, 10, 4, 19, 17, 6, 8, 12, 7, 2, 9, 14, 15, 20, 18, 16 |
      8, 1, 15, 18, 2, 14, 13, 19, 5, 11, 4, 3, 12, 9, 20, 7, 6, 17, 16, 10 |
      7, 20, 1, 5, 15, 4, 16, 9, 3, 14, 8, 19, 12, 2, 17, 13, 10, 18, 11, 6 |
      18, 5, 16, 20, 15, 1, 6, 2, 4, 13, 3, 12, 11, 17, 8, 14, 7, 10, 19, 9 |
      1, 19, 3, 10, 6, 14, 8, 2, 20, 7, 5, 16, 9, 4, 15, 12, 18, 11, 17, 13 |
      14, 17, 18, 9, 4, 2, 6, 5, 15, 3, 16, 20, 8, 13, 10, 11, 19, 1, 12, 7 |
      1, 20, 10, 12, 17, 11, 13, 18, 7, 16, 3, 14, 15, 19, 5, 2, 4, 6, 8, 9 |
      18, 20, 13, 8, 9, 7, 16, 4, 11, 3, 10, 12, 15, 1, 14, 6, 19, 17, 5, 2 |
      8, 19, 20, 15, 11, 7, 18, 1, 9, 4, 5, 10, 16, 2, 6, 3, 13, 14, 12, 17 |
      16, 11, 15, 19, 12, 18, 14, 2, 17, 13, 9, 7, 20, 1, 6, 8, 5, 4, 10, 3 |
      12, 15, 10, 5, 9, 16, 3, 20, 8, 4, 2, 18, 7, 6, 19, 13, 1, 17, 14, 11 |
      4, 17, 7, 18, 16, 12, 6, 2, 9, 15, 8, 5, 11, 14, 10, 13, 20, 3, 1, 19 |
      12, 15, 5, 2, 4, 8, 3, 7, 19, 9, 14, 18, 1, 13, 6, 17, 10, 20, 16, 11 |
      4, 13, 15, 18, 19, 20, 12, 2, 1, 16, 8, 14, 9, 10, 17, 7, 3, 6, 11, 5 |
      6, 14, 1, 12, 18, 4, 19, 10, 11, 17, 15, 8, 16, 20, 9, 7, 5, 3, 13, 2 |];
