n = 50;
m = 15;

d = [| 40, 63, 39, 56, 77, 66, 72, 59, 50, 34, 92, 26, 95, 40, 8 |
     56, 60, 85, 38, 42, 58, 2, 64, 12, 82, 74, 24, 92, 45, 4 |
     23, 93, 2, 92, 61, 35, 92, 51, 54, 88, 51, 16, 14, 65, 84 |
     79, 50, 10, 82, 72, 64, 81, 22, 53, 55, 66, 21, 78, 75, 79 |
     34, 76, 27, 67, 13, 98, 88, 50, 89, 6, 83, 12, 92, 7, 27 |
     10, 5, 55, 3, 45, 39, 68, 26, 71, 46, 29, 50, 67, 75, 2 |
     23, 99, 54, 41, 96, 10, 99, 30, 70, 39, 19, 56, 79, 43, 39 |
     16, 42, 9, 59, 16, 83, 67, 17, 9, 33, 15, 61, 13, 63, 62 |
     65, 90, 30, 77, 34, 37, 70, 4, 66, 79, 47, 48, 15, 97, 53 |
     45, 82, 42, 82, 9, 31, 3, 24, 33, 1, 61, 83, 40, 44, 4 |
     50, 13, 79, 46, 26, 85, 89, 53, 6, 45, 41, 74, 57, 12, 71 |
     18, 15, 63, 71, 33, 97, 5, 53, 7, 2, 88, 4, 92, 83, 66 |
     4, 56, 70, 83, 20, 35, 2, 12, 98, 11, 94, 76, 40, 15, 19 |
     98, 49, 8, 14, 88, 42, 91, 33, 61, 1, 53, 55, 32, 81, 71 |
     11, 90, 25, 92, 82, 4, 88, 97, 59, 43, 71, 19, 13, 15, 25 |
     97, 83, 51, 27, 96, 69, 32, 23, 97, 24, 65, 14, 33, 84, 25 |
     5, 67, 65, 73, 2, 68, 2, 96, 93, 87, 59, 66, 35, 49, 89 |
     97, 41, 49, 43, 79, 46, 49, 29, 96, 62, 53, 68, 97, 76, 79 |
     80, 43, 40, 51, 81, 27, 27, 64, 28, 67, 50, 5, 25, 38, 64 |
     57, 97, 53, 84, 77, 86, 79, 60, 53, 35, 8, 79, 58, 48, 70 |
     80, 7, 30, 61, 14, 72, 39, 78, 93, 75, 42, 73, 33, 39, 57 |
     20, 77, 30, 58, 5, 91, 40, 41, 76, 29, 2, 66, 55, 88, 91 |
     20, 52, 85, 66, 27, 51, 82, 69, 33, 33, 35, 15, 2, 43, 47 |
     42, 37, 78, 61, 10, 55, 58, 37, 59, 87, 63, 23, 95, 26, 68 |
     65, 67, 48, 1, 79, 44, 66, 57, 94, 9, 48, 27, 77, 20, 27 |
     92, 24, 94, 83, 86, 89, 70, 19, 58, 23, 35, 74, 14, 22, 94 |
     45, 54, 80, 40, 25, 43, 77, 36, 87, 39, 60, 44, 38, 98, 82 |
     32, 44, 15, 45, 80, 96, 33, 55, 79, 18, 70, 54, 43, 68, 51 |
     58, 59, 28, 70, 30, 47, 77, 1, 2, 25, 8, 77, 75, 46, 36 |
     52, 78, 93, 59, 78, 11, 37, 23, 58, 68, 98, 12, 28, 84, 52 |
     95, 65, 8, 1, 20, 10, 77, 6, 84, 18, 52, 37, 29, 61, 33 |
     93, 99, 37, 97, 21, 18, 18, 51, 73, 19, 1, 80, 49, 17, 32 |
     8, 75, 96, 98, 20, 22, 58, 89, 3, 14, 95, 79, 71, 78, 38 |
     84, 20, 89, 4, 68, 10, 39, 56, 14, 40, 16, 24, 83, 37, 6 |
     50, 3, 67, 3, 35, 95, 33, 2, 36, 48, 85, 14, 9, 77, 55 |
     53, 9, 90, 33, 23, 15, 4, 62, 43, 50, 59, 85, 85, 17, 91 |
     46, 80, 68, 14, 62, 97, 29, 85, 69, 57, 16, 65, 4, 65, 70 |
     32, 34, 18, 35, 4, 8, 58, 60, 81, 19, 44, 47, 82, 54, 6 |
     75, 90, 81, 9, 51, 70, 39, 22, 36, 95, 64, 3, 24, 44, 89 |
     94, 22, 45, 50, 96, 76, 19, 23, 70, 28, 70, 32, 43, 69, 74 |
     50, 24, 80, 35, 24, 83, 89, 75, 26, 71, 48, 83, 94, 52, 63 |
     39, 94, 73, 10, 39, 8, 69, 80, 24, 24, 3, 43, 97, 15, 65 |
     17, 38, 86, 1, 11, 19, 34, 85, 34, 54, 79, 62, 5, 94, 7 |
     35, 84, 50, 39, 20, 28, 22, 63, 20, 50, 73, 27, 31, 57, 86 |
     69, 5, 4, 47, 49, 42, 34, 92, 14, 5, 74, 64, 99, 82, 91 |
     59, 36, 43, 66, 97, 89, 13, 32, 40, 24, 24, 15, 48, 67, 88 |
     55, 45, 74, 55, 2, 22, 91, 73, 96, 17, 36, 60, 64, 55, 64 |
     26, 64, 63, 2, 50, 20, 33, 18, 73, 15, 66, 71, 75, 85, 43 |
     16, 38, 53, 99, 50, 59, 13, 27, 50, 3, 58, 17, 97, 41, 67 |
     11, 51, 13, 98, 51, 69, 71, 30, 6, 33, 39, 52, 89, 97, 47 |];

mc = [| 3, 4, 5, 12, 6, 13, 10, 2, 14, 9, 8, 11, 15, 1, 7 |
      12, 13, 11, 4, 1, 8, 7, 3, 15, 2, 5, 9, 10, 6, 14 |
      4, 5, 9, 3, 13, 12, 6, 14, 1, 15, 11, 7, 10, 8, 2 |
      7, 4, 13, 10, 2, 3, 11, 8, 6, 1, 9, 15, 14, 12, 5 |
      15, 11, 12, 14, 8, 1, 4, 3, 13, 2, 6, 5, 10, 7, 9 |
      8, 11, 13, 3, 12, 15, 6, 10, 14, 2, 9, 4, 7, 1, 5 |
      3, 10, 13, 5, 4, 9, 7, 11, 15, 12, 2, 14, 1, 6, 8 |
      14, 15, 4, 6, 10, 2, 5, 7, 8, 12, 1, 11, 3, 13, 9 |
      7, 9, 14, 11, 5, 15, 1, 6, 8, 12, 10, 4, 2, 13, 3 |
      15, 12, 4, 1, 8, 3, 2, 11, 13, 6, 10, 5, 9, 7, 14 |
      14, 5, 4, 3, 2, 6, 15, 13, 1, 7, 10, 11, 9, 8, 12 |
      8, 14, 11, 15, 13, 4, 1, 9, 3, 2, 5, 10, 7, 6, 12 |
      13, 8, 3, 11, 10, 9, 5, 12, 2, 14, 1, 15, 4, 7, 6 |
      1, 3, 5, 11, 7, 4, 6, 13, 12, 2, 15, 14, 8, 10, 9 |
      2, 12, 3, 5, 6, 13, 10, 11, 4, 7, 15, 8, 9, 1, 14 |
      4, 9, 15, 1, 6, 3, 10, 13, 8, 12, 5, 11, 14, 7, 2 |
      5, 4, 11, 7, 14, 6, 10, 13, 1, 12, 8, 9, 15, 3, 2 |
      12, 10, 2, 11, 1, 6, 13, 15, 3, 4, 7, 9, 5, 14, 8 |
      15, 9, 6, 5, 2, 10, 3, 8, 7, 11, 4, 14, 12, 1, 13 |
      4, 1, 9, 7, 13, 5, 12, 11, 10, 3, 6, 15, 14, 2, 8 |
      9, 14, 6, 15, 2, 7, 1, 8, 4, 3, 13, 10, 12, 11, 5 |
      2, 7, 1, 15, 8, 10, 13, 14, 9, 5, 11, 3, 6, 12, 4 |
      8, 12, 13, 6, 7, 3, 5, 10, 14, 4, 2, 15, 1, 11, 9 |
      1, 7, 11, 14, 6, 15, 4, 13, 2, 3, 10, 5, 9, 8, 12 |
      3, 13, 10, 15, 11, 2, 14, 4, 7, 9, 6, 5, 12, 1, 8 |
      4, 10, 12, 8, 9, 7, 14, 1, 11, 3, 15, 5, 2, 6, 13 |
      14, 4, 9, 5, 10, 8, 6, 15, 1, 13, 7, 12, 3, 2, 11 |
      13, 15, 7, 11, 14, 2, 4, 10, 5, 8, 9, 1, 12, 3, 6 |
      12, 6, 13, 15, 3, 1, 8, 14, 2, 4, 5, 9, 7, 10, 11 |
      5, 15, 14, 8, 1, 12, 3, 10, 11, 2, 13, 9, 4, 6, 7 |
      1, 11, 15, 10, 9, 4, 12, 14, 2, 3, 6, 7, 5, 8, 13 |
      7, 13, 5, 2, 12, 3, 4, 1, 6, 8, 11, 14, 9, 15, 10 |
      5, 13, 15, 7, 2, 3, 14, 12, 11, 4, 10, 9, 8, 6, 1 |
      5, 4, 14, 2, 13, 12, 15, 9, 10, 1, 3, 8, 6, 11, 7 |
      6, 9, 12, 8, 14, 7, 10, 1, 13, 15, 5, 2, 11, 4, 3 |
      10, 15, 9, 3, 4, 1, 8, 12, 11, 2, 14, 13, 7, 5, 6 |
      15, 1, 13, 9, 3, 14, 6, 7, 10, 11, 8, 12, 5, 4, 2 |
      9, 7, 3, 11, 12, 8, 2, 13, 1, 6, 5, 15, 10, 4, 14 |
      10, 2, 9, 5, 14, 13, 12, 15, 3, 6, 4, 11, 8, 7, 1 |
      10, 4, 2, 8, 7, 11, 5, 1, 13, 15, 14, 3, 9, 6, 12 |
      13, 8, 6, 1, 5, 4, 10, 9, 3, 14, 7, 2, 11, 12, 15 |
      14, 3, 10, 4, 8, 9, 1, 7, 2, 5, 6, 13, 12, 11, 15 |
      12, 13, 4, 6, 11, 7, 10, 9, 2, 5, 15, 8, 1, 14, 3 |
      11, 13, 15, 3, 9, 12, 6, 10, 7, 5, 14, 1, 4, 8, 2 |
      6, 4, 9, 7, 12, 13, 8, 14, 3, 11, 2, 5, 1, 15, 10 |
      6, 12, 10, 2, 5, 13, 9, 15, 14, 3, 1, 4, 11, 7, 8 |
      13, 11, 10, 2, 4, 15, 9, 8, 7, 3, 5, 12, 1, 14, 6 |
      9, 7, 1, 3, 14, 12, 2, 13, 15, 6, 5, 10, 11, 4, 8 |
      14, 3, 12, 13, 4, 11, 6, 8, 2, 5, 1, 15, 9, 7, 10 |
      5, 14, 12, 9, 6, 10, 1, 11, 8, 4, 2, 3, 15, 7, 13 |];
