n = 20;
m = 20;

d = [| 24, 95, 21, 66, 29, 91, 7, 53, 76, 22, 24, 58, 12, 12, 45, 17, 54, 73, 73, 71 |
     26, 81, 54, 76, 25, 80, 10, 47, 42, 14, 63, 3, 75, 99, 81, 15, 68, 43, 59, 92 |
     70, 58, 1, 24, 44, 71, 51, 5, 62, 4, 45, 92, 39, 56, 63, 15, 17, 18, 56, 87 |
     8, 26, 69, 34, 78, 58, 50, 2, 46, 31, 4, 77, 14, 54, 70, 60, 82, 73, 50, 17 |
     31, 67, 16, 55, 65, 54, 51, 78, 76, 84, 79, 45, 28, 91, 53, 58, 66, 86, 92, 44 |
     72, 79, 24, 38, 75, 66, 3, 30, 75, 69, 86, 83, 11, 61, 51, 58, 47, 46, 30, 59 |
     54, 6, 92, 36, 11, 18, 39, 20, 41, 79, 27, 10, 43, 8, 9, 13, 43, 65, 50, 97 |
     45, 46, 67, 26, 79, 80, 60, 34, 98, 43, 42, 94, 54, 68, 29, 16, 34, 81, 43, 57 |
     97, 10, 6, 40, 45, 85, 77, 96, 68, 58, 91, 43, 11, 88, 49, 86, 1, 14, 61, 1 |
     32, 38, 7, 11, 14, 31, 6, 2, 75, 27, 6, 91, 85, 76, 28, 97, 92, 22, 14, 76 |
     68, 44, 86, 59, 61, 35, 99, 93, 52, 25, 22, 39, 16, 36, 20, 98, 57, 38, 11, 21 |
     83, 2, 40, 41, 60, 70, 33, 4, 88, 75, 26, 73, 36, 7, 63, 38, 82, 27, 18, 88 |
     97, 79, 80, 8, 17, 56, 88, 86, 65, 89, 59, 98, 52, 18, 95, 52, 64, 51, 25, 74 |
     13, 89, 20, 69, 81, 98, 5, 85, 63, 5, 67, 93, 65, 49, 89, 78, 42, 13, 26, 65 |
     22, 80, 1, 66, 73, 62, 75, 33, 93, 34, 2, 18, 16, 11, 15, 98, 58, 16, 75, 73 |
     1, 93, 53, 90, 58, 88, 84, 64, 97, 66, 85, 94, 55, 49, 49, 97, 79, 82, 16, 16 |
     96, 95, 62, 16, 34, 23, 71, 20, 15, 39, 41, 78, 32, 55, 83, 5, 79, 58, 32, 13 |
     28, 62, 92, 34, 81, 63, 85, 87, 34, 34, 8, 86, 37, 34, 24, 5, 33, 49, 95, 16 |
     81, 68, 45, 93, 80, 25, 26, 89, 7, 41, 31, 92, 94, 98, 67, 18, 5, 33, 8, 82 |
     36, 79, 45, 77, 48, 90, 52, 56, 20, 70, 98, 90, 24, 73, 66, 33, 29, 58, 65, 4 |];

mc = [| 3, 14, 10, 13, 19, 17, 1, 11, 8, 15, 2, 12, 7, 18, 20, 16, 4, 6, 5, 9 |
      13, 12, 18, 5, 2, 10, 17, 9, 16, 14, 20, 19, 1, 7, 6, 3, 8, 15, 4, 11 |
      20, 4, 15, 14, 19, 10, 5, 6, 16, 7, 12, 8, 2, 17, 1, 13, 3, 9, 18, 11 |
      9, 8, 11, 3, 4, 13, 16, 12, 14, 5, 7, 19, 6, 15, 10, 20, 18, 2, 17, 1 |
      5, 13, 20, 11, 3, 2, 9, 19, 1, 12, 6, 8, 15, 16, 18, 17, 7, 4, 14, 10 |
      18, 6, 8, 11, 12, 20, 7, 9, 2, 15, 17, 1, 3, 19, 5, 14, 10, 4, 16, 13 |
      7, 8, 18, 19, 20, 14, 17, 5, 4, 15, 13, 16, 1, 9, 10, 3, 11, 6, 12, 2 |
      10, 17, 7, 14, 19, 16, 6, 12, 5, 13, 3, 8, 2, 4, 15, 11, 18, 9, 20, 1 |
      20, 11, 17, 3, 9, 1, 15, 4, 14, 6, 10, 2, 8, 16, 12, 7, 18, 5, 13, 19 |
      3, 9, 13, 11, 8, 7, 5, 15, 10, 17, 19, 14, 6, 18, 16, 4, 20, 1, 2, 12 |
      5, 10, 19, 8, 17, 18, 4, 9, 3, 13, 15, 2, 16, 1, 11, 7, 20, 6, 14, 12 |
      20, 5, 9, 14, 2, 18, 8, 17, 15, 11, 13, 10, 19, 6, 3, 1, 7, 16, 4, 12 |
      1, 9, 13, 15, 4, 20, 11, 17, 7, 12, 14, 10, 2, 5, 3, 19, 8, 6, 16, 18 |
      3, 8, 11, 13, 14, 10, 6, 19, 2, 9, 7, 18, 17, 15, 5, 16, 12, 20, 1, 4 |
      19, 9, 2, 16, 7, 10, 13, 12, 6, 4, 18, 15, 1, 11, 20, 14, 5, 3, 17, 8 |
      7, 20, 18, 10, 13, 17, 1, 15, 5, 6, 2, 9, 4, 16, 8, 3, 19, 11, 14, 12 |
      8, 1, 11, 12, 13, 2, 14, 9, 5, 10, 19, 20, 7, 15, 16, 3, 6, 17, 4, 18 |
      13, 11, 17, 15, 4, 12, 8, 7, 3, 10, 2, 19, 14, 5, 16, 1, 20, 9, 6, 18 |
      7, 16, 11, 15, 14, 10, 9, 13, 2, 5, 17, 12, 1, 8, 6, 20, 3, 4, 18, 19 |
      8, 3, 6, 19, 18, 13, 15, 4, 7, 10, 1, 20, 16, 17, 2, 12, 5, 14, 11, 9 |];
