n = 30;
m = 15;

d = [| 32, 99, 62, 91, 42, 79, 88, 16, 86, 56, 68, 38, 29, 31, 19 |
     59, 8, 38, 40, 5, 28, 11, 96, 72, 52, 62, 87, 24, 80, 96 |
     40, 71, 82, 80, 10, 98, 78, 36, 70, 71, 58, 76, 71, 66, 68 |
     58, 91, 57, 49, 30, 6, 67, 73, 63, 31, 67, 29, 78, 63, 31 |
     42, 89, 7, 55, 8, 82, 23, 62, 95, 81, 11, 83, 77, 11, 42 |
     55, 45, 10, 9, 74, 50, 74, 28, 86, 5, 5, 56, 61, 85, 41 |
     79, 88, 97, 42, 51, 49, 79, 37, 86, 99, 27, 72, 96, 2, 45 |
     56, 96, 3, 54, 87, 77, 13, 35, 13, 76, 55, 8, 41, 69, 96 |
     65, 41, 2, 96, 99, 14, 85, 42, 90, 57, 75, 62, 62, 47, 50 |
     3, 94, 82, 1, 3, 88, 73, 11, 75, 15, 23, 87, 82, 32, 38 |
     35, 85, 76, 73, 43, 34, 91, 56, 69, 92, 15, 64, 47, 95, 14 |
     82, 71, 69, 92, 10, 98, 44, 86, 50, 74, 94, 10, 18, 43, 16 |
     59, 19, 7, 45, 29, 12, 40, 66, 50, 3, 35, 12, 45, 83, 27 |
     14, 48, 93, 57, 41, 41, 88, 12, 40, 57, 56, 31, 14, 36, 96 |
     65, 95, 93, 80, 9, 66, 79, 91, 16, 89, 25, 83, 12, 61, 18 |
     29, 69, 58, 39, 9, 19, 45, 29, 76, 75, 80, 82, 9, 57, 26 |
     30, 48, 50, 47, 71, 40, 88, 45, 22, 93, 26, 78, 68, 85, 92 |
     21, 73, 58, 34, 19, 14, 65, 65, 4, 85, 40, 84, 2, 5, 11 |
     36, 47, 60, 89, 23, 45, 63, 15, 29, 72, 9, 66, 40, 37, 51 |
     68, 31, 95, 76, 69, 67, 81, 53, 16, 21, 25, 71, 12, 53, 40 |
     87, 72, 65, 12, 60, 68, 3, 42, 51, 16, 65, 33, 65, 63, 99 |
     26, 68, 18, 64, 35, 69, 57, 94, 85, 56, 46, 47, 24, 73, 18 |
     63, 10, 66, 83, 32, 32, 51, 4, 49, 62, 33, 83, 79, 15, 76 |
     52, 99, 28, 60, 95, 77, 30, 19, 23, 39, 31, 17, 17, 76, 73 |
     25, 25, 87, 40, 34, 18, 10, 3, 85, 45, 92, 39, 37, 80, 83 |
     55, 57, 60, 89, 71, 46, 82, 23, 41, 68, 41, 90, 2, 26, 62 |
     88, 14, 39, 1, 9, 53, 24, 67, 80, 82, 47, 63, 39, 24, 19 |
     8, 29, 43, 92, 24, 18, 75, 40, 38, 35, 63, 45, 71, 80, 31 |
     52, 74, 80, 60, 15, 3, 29, 18, 43, 23, 28, 33, 65, 9, 13 |
     76, 49, 52, 8, 83, 13, 71, 30, 91, 38, 37, 71, 68, 19, 71 |];

mc = [| 6, 15, 13, 14, 2, 11, 7, 1, 10, 12, 4, 8, 3, 5, 9 |
      1, 12, 14, 9, 3, 6, 11, 7, 13, 5, 8, 10, 4, 2, 15 |
      6, 10, 15, 12, 5, 2, 3, 7, 1, 4, 9, 8, 13, 11, 14 |
      14, 12, 5, 13, 9, 2, 4, 11, 7, 10, 3, 8, 15, 6, 1 |
      3, 8, 5, 14, 4, 9, 7, 13, 2, 15, 6, 1, 12, 11, 10 |
      2, 13, 12, 6, 10, 1, 4, 5, 9, 3, 11, 8, 14, 15, 7 |
      15, 6, 2, 7, 10, 5, 9, 11, 4, 1, 8, 14, 13, 12, 3 |
      7, 13, 9, 3, 6, 2, 14, 11, 4, 10, 5, 12, 8, 15, 1 |
      12, 1, 9, 8, 2, 14, 5, 7, 4, 11, 13, 15, 10, 6, 3 |
      5, 15, 4, 3, 7, 14, 13, 12, 1, 2, 6, 9, 10, 11, 8 |
      10, 12, 3, 5, 8, 14, 13, 9, 15, 2, 6, 11, 7, 4, 1 |
      15, 10, 11, 14, 2, 7, 8, 6, 12, 4, 13, 5, 1, 9, 3 |
      13, 1, 8, 2, 12, 5, 7, 10, 3, 6, 14, 11, 9, 4, 15 |
      7, 5, 3, 6, 10, 13, 9, 4, 8, 15, 11, 12, 2, 14, 1 |
      1, 14, 4, 9, 7, 8, 2, 15, 11, 5, 10, 13, 12, 3, 6 |
      7, 1, 5, 10, 8, 9, 15, 2, 12, 6, 3, 4, 14, 11, 13 |
      1, 11, 10, 3, 14, 15, 7, 12, 13, 8, 5, 9, 2, 6, 4 |
      8, 9, 5, 2, 14, 12, 4, 11, 1, 10, 6, 3, 7, 13, 15 |
      11, 12, 8, 9, 1, 14, 7, 5, 3, 15, 2, 13, 6, 10, 4 |
      14, 1, 11, 5, 10, 15, 13, 9, 4, 2, 7, 6, 12, 8, 3 |
      8, 5, 15, 12, 11, 14, 4, 3, 10, 13, 9, 1, 7, 2, 6 |
      15, 9, 7, 3, 4, 1, 13, 10, 12, 5, 6, 11, 14, 2, 8 |
      3, 9, 10, 4, 6, 11, 2, 5, 8, 13, 12, 7, 1, 14, 15 |
      8, 13, 1, 5, 7, 11, 6, 4, 10, 2, 15, 12, 3, 14, 9 |
      8, 15, 9, 12, 7, 2, 14, 4, 1, 3, 5, 10, 6, 11, 13 |
      10, 15, 9, 3, 2, 14, 7, 1, 13, 12, 4, 6, 11, 8, 5 |
      5, 9, 3, 13, 7, 8, 2, 4, 10, 11, 1, 14, 15, 12, 6 |
      10, 5, 11, 9, 3, 12, 14, 15, 1, 4, 13, 2, 8, 6, 7 |
      1, 5, 10, 13, 8, 11, 3, 7, 2, 6, 12, 4, 9, 14, 15 |
      3, 14, 7, 1, 10, 11, 15, 9, 8, 5, 12, 4, 6, 2, 13 |];
