n = 50;
m = 15;

d = [| 37, 91, 11, 90, 56, 98, 96, 32, 79, 26, 57, 66, 62, 1, 82 |
     85, 30, 45, 55, 78, 35, 74, 37, 92, 11, 47, 7, 29, 74, 52 |
     14, 75, 34, 37, 58, 90, 15, 13, 40, 21, 32, 37, 95, 87, 38 |
     51, 26, 97, 92, 30, 3, 55, 53, 23, 96, 80, 29, 7, 30, 93 |
     1, 22, 46, 40, 52, 60, 14, 12, 47, 95, 58, 50, 10, 9, 85 |
     89, 96, 11, 68, 51, 3, 91, 70, 84, 62, 25, 81, 80, 95, 40 |
     56, 78, 30, 61, 4, 10, 53, 58, 27, 19, 9, 8, 79, 51, 32 |
     82, 91, 69, 95, 45, 99, 46, 34, 29, 38, 64, 84, 21, 36, 56 |
     78, 29, 85, 77, 91, 9, 54, 21, 1, 22, 89, 92, 77, 6, 21 |
     9, 1, 20, 67, 41, 78, 25, 80, 99, 41, 21, 56, 95, 80, 71 |
     22, 93, 66, 2, 88, 5, 18, 50, 30, 80, 52, 75, 21, 35, 75 |
     5, 76, 29, 24, 42, 18, 22, 1, 5, 49, 69, 6, 83, 47, 61 |
     99, 87, 71, 72, 14, 64, 50, 56, 15, 53, 22, 98, 30, 61, 49 |
     12, 75, 94, 85, 38, 32, 56, 64, 79, 63, 10, 79, 52, 23, 33 |
     67, 27, 54, 20, 22, 80, 80, 5, 33, 43, 68, 14, 68, 99, 32 |
     73, 18, 12, 23, 3, 83, 60, 33, 6, 81, 62, 19, 71, 24, 7 |
     68, 59, 4, 72, 95, 88, 7, 68, 62, 70, 73, 11, 16, 17, 69 |
     75, 51, 97, 19, 1, 84, 91, 60, 81, 29, 58, 80, 54, 79, 24 |
     18, 95, 64, 14, 64, 94, 61, 54, 75, 27, 66, 13, 64, 58, 92 |
     28, 25, 1, 55, 42, 63, 5, 82, 36, 6, 8, 77, 62, 69, 41 |
     35, 19, 45, 48, 76, 11, 16, 97, 99, 50, 51, 53, 20, 48, 86 |
     60, 74, 49, 41, 76, 82, 73, 34, 56, 76, 7, 68, 12, 93, 94 |
     46, 64, 13, 89, 48, 82, 2, 51, 49, 53, 30, 76, 87, 50, 25 |
     34, 37, 31, 57, 61, 13, 22, 92, 34, 11, 35, 36, 30, 43, 38 |
     68, 21, 56, 1, 8, 22, 43, 26, 62, 71, 46, 14, 70, 3, 67 |
     21, 61, 68, 35, 93, 79, 93, 48, 86, 21, 34, 48, 28, 72, 78 |
     32, 79, 62, 34, 42, 42, 98, 62, 62, 64, 73, 45, 43, 43, 14 |
     21, 76, 63, 1, 81, 67, 6, 5, 19, 65, 65, 62, 75, 75, 83 |
     82, 62, 54, 16, 22, 77, 33, 27, 31, 27, 51, 81, 45, 25, 73 |
     91, 70, 98, 40, 86, 81, 37, 28, 12, 76, 7, 62, 67, 34, 33 |
     66, 15, 80, 59, 23, 34, 79, 68, 21, 88, 28, 58, 97, 44, 53 |
     3, 98, 54, 12, 86, 25, 99, 68, 71, 3, 94, 43, 17, 83, 30 |
     14, 35, 73, 33, 14, 53, 71, 2, 54, 1, 91, 1, 87, 56, 45 |
     31, 81, 5, 58, 96, 6, 42, 83, 44, 29, 56, 36, 68, 2, 68 |
     92, 3, 31, 86, 4, 5, 9, 29, 15, 76, 84, 88, 96, 62, 54 |
     24, 47, 10, 65, 31, 3, 2, 14, 37, 47, 65, 49, 43, 68, 80 |
     85, 39, 52, 71, 4, 94, 81, 30, 73, 58, 92, 49, 94, 8, 91 |
     8, 3, 98, 96, 98, 90, 28, 20, 33, 9, 90, 45, 84, 95, 34 |
     45, 95, 14, 93, 10, 49, 54, 10, 49, 4, 70, 14, 25, 72, 52 |
     79, 10, 86, 63, 50, 39, 54, 50, 92, 49, 93, 61, 16, 17, 82 |
     38, 12, 80, 97, 83, 61, 50, 50, 31, 80, 95, 57, 59, 89, 14 |
     65, 63, 54, 59, 1, 2, 81, 31, 8, 53, 63, 74, 70, 71, 1 |
     18, 80, 49, 10, 75, 15, 73, 69, 76, 29, 75, 93, 63, 3, 79 |
     11, 51, 87, 81, 66, 67, 9, 11, 61, 91, 27, 27, 50, 45, 93 |
     37, 77, 78, 18, 48, 9, 78, 27, 48, 76, 61, 37, 39, 75, 21 |
     43, 12, 75, 80, 51, 84, 93, 73, 42, 62, 44, 78, 96, 69, 61 |
     12, 69, 4, 92, 34, 30, 15, 25, 14, 33, 75, 64, 27, 19, 18 |
     80, 82, 71, 87, 14, 95, 97, 62, 43, 12, 21, 93, 81, 31, 47 |
     57, 88, 59, 11, 82, 46, 85, 99, 21, 70, 62, 21, 53, 5, 97 |
     10, 81, 39, 82, 74, 58, 67, 72, 50, 52, 63, 29, 31, 99, 48 |];

mc = [| 3, 15, 1, 11, 2, 13, 7, 4, 6, 9, 14, 8, 5, 10, 12 |
      7, 1, 2, 13, 4, 12, 11, 9, 3, 6, 15, 14, 10, 8, 5 |
      2, 6, 4, 1, 12, 9, 5, 10, 8, 11, 7, 13, 3, 14, 15 |
      14, 15, 12, 1, 13, 8, 2, 11, 10, 9, 3, 6, 7, 5, 4 |
      9, 15, 5, 14, 13, 8, 7, 10, 4, 12, 6, 2, 3, 11, 1 |
      7, 3, 14, 11, 15, 5, 10, 6, 13, 2, 8, 12, 9, 4, 1 |
      7, 13, 4, 15, 10, 2, 12, 9, 8, 1, 3, 11, 5, 6, 14 |
      5, 13, 3, 4, 11, 8, 2, 15, 12, 1, 14, 6, 10, 7, 9 |
      14, 8, 4, 12, 9, 13, 1, 7, 10, 3, 5, 6, 15, 11, 2 |
      5, 14, 8, 11, 6, 3, 4, 1, 7, 9, 13, 12, 10, 2, 15 |
      2, 7, 10, 5, 1, 6, 15, 13, 9, 11, 12, 8, 3, 4, 14 |
      1, 11, 6, 14, 2, 13, 4, 5, 10, 7, 15, 3, 8, 9, 12 |
      14, 9, 2, 7, 15, 12, 13, 10, 3, 6, 4, 8, 11, 1, 5 |
      4, 13, 2, 9, 15, 5, 7, 11, 10, 12, 1, 6, 8, 14, 3 |
      3, 2, 15, 7, 14, 5, 10, 6, 12, 13, 4, 8, 1, 9, 11 |
      4, 12, 9, 3, 1, 7, 11, 10, 6, 14, 2, 13, 8, 15, 5 |
      12, 4, 6, 14, 7, 10, 2, 11, 13, 9, 1, 3, 15, 8, 5 |
      7, 1, 11, 5, 15, 2, 9, 4, 3, 8, 10, 14, 13, 6, 12 |
      2, 13, 12, 6, 5, 11, 3, 8, 4, 15, 14, 1, 7, 10, 9 |
      4, 14, 8, 15, 5, 2, 9, 10, 13, 1, 6, 3, 7, 11, 12 |
      12, 8, 14, 9, 11, 15, 6, 4, 7, 10, 5, 2, 1, 13, 3 |
      13, 7, 9, 12, 2, 6, 4, 1, 14, 10, 3, 8, 5, 15, 11 |
      3, 15, 13, 6, 8, 10, 14, 7, 5, 12, 4, 2, 9, 11, 1 |
      10, 15, 1, 9, 12, 13, 14, 11, 2, 3, 4, 6, 8, 7, 5 |
      15, 11, 13, 2, 9, 12, 1, 4, 8, 3, 5, 6, 10, 14, 7 |
      7, 3, 14, 10, 6, 4, 15, 2, 9, 13, 12, 11, 8, 1, 5 |
      7, 1, 4, 10, 2, 13, 11, 3, 15, 5, 9, 6, 12, 8, 14 |
      11, 8, 2, 7, 12, 1, 15, 10, 9, 13, 14, 3, 6, 5, 4 |
      14, 10, 6, 2, 13, 1, 3, 9, 5, 7, 15, 11, 12, 8, 4 |
      12, 2, 6, 13, 10, 1, 9, 3, 11, 4, 8, 15, 5, 7, 14 |
      8, 1, 7, 6, 9, 10, 11, 2, 13, 5, 4, 14, 3, 15, 12 |
      2, 15, 14, 8, 4, 3, 6, 13, 11, 7, 9, 10, 12, 1, 5 |
      14, 2, 8, 15, 13, 9, 11, 1, 4, 12, 5, 7, 10, 6, 3 |
      14, 7, 6, 12, 4, 2, 5, 10, 11, 9, 13, 15, 3, 1, 8 |
      13, 6, 12, 4, 9, 1, 8, 15, 10, 11, 7, 2, 3, 5, 14 |
      9, 10, 14, 15, 12, 7, 11, 4, 13, 6, 3, 5, 1, 8, 2 |
      5, 7, 11, 9, 13, 6, 1, 3, 10, 8, 4, 15, 14, 12, 2 |
      13, 3, 5, 4, 15, 1, 12, 10, 11, 14, 6, 7, 9, 8, 2 |
      11, 10, 6, 3, 2, 9, 7, 1, 5, 13, 8, 15, 12, 14, 4 |
      10, 1, 3, 12, 9, 2, 11, 4, 13, 6, 15, 8, 5, 14, 7 |
      10, 8, 4, 1, 5, 12, 7, 14, 2, 15, 3, 11, 9, 13, 6 |
      7, 3, 12, 2, 5, 6, 11, 1, 4, 10, 14, 13, 9, 8, 15 |
      15, 1, 14, 2, 8, 4, 9, 11, 7, 3, 13, 5, 12, 6, 10 |
      6, 2, 3, 12, 13, 1, 11, 10, 7, 14, 4, 5, 9, 8, 15 |
      2, 7, 3, 11, 14, 1, 9, 6, 12, 13, 8, 15, 10, 4, 5 |
      12, 14, 5, 6, 1, 7, 10, 3, 4, 9, 8, 13, 11, 15, 2 |
      15, 2, 7, 12, 9, 4, 10, 3, 11, 6, 13, 8, 1, 5, 14 |
      14, 10, 13, 7, 2, 8, 3, 1, 12, 4, 9, 15, 11, 6, 5 |
      11, 4, 13, 1, 3, 15, 9, 12, 5, 10, 7, 2, 8, 6, 14 |
      4, 9, 15, 5, 12, 13, 6, 11, 10, 1, 8, 14, 7, 3, 2 |];
