n = 30;
m = 15;

d = [| 70, 62, 3, 65, 23, 22, 95, 83, 62, 9, 92, 86, 49, 38, 80 |
     59, 79, 71, 47, 37, 57, 14, 66, 72, 77, 76, 31, 11, 72, 23 |
     17, 49, 93, 78, 25, 21, 43, 16, 55, 5, 99, 77, 38, 6, 56 |
     69, 47, 10, 69, 98, 48, 56, 32, 96, 58, 76, 21, 3, 27, 2 |
     70, 30, 78, 7, 32, 44, 4, 35, 99, 27, 4, 4, 13, 43, 61 |
     21, 96, 22, 2, 52, 59, 82, 1, 48, 61, 44, 10, 2, 69, 73 |
     36, 17, 74, 68, 29, 87, 35, 2, 31, 12, 16, 60, 85, 18, 48 |
     77, 95, 25, 49, 5, 75, 29, 75, 47, 17, 65, 84, 57, 46, 68 |
     91, 12, 89, 17, 32, 59, 20, 60, 59, 83, 7, 31, 50, 3, 98 |
     31, 37, 17, 25, 40, 11, 57, 41, 38, 27, 88, 99, 55, 93, 26 |
     79, 60, 18, 62, 22, 36, 2, 99, 43, 39, 50, 95, 1, 21, 87 |
     58, 17, 95, 14, 41, 81, 97, 28, 74, 28, 89, 34, 61, 14, 57 |
     89, 42, 68, 36, 67, 22, 56, 60, 81, 78, 84, 75, 42, 78, 52 |
     37, 27, 40, 62, 1, 80, 74, 8, 75, 91, 10, 76, 56, 86, 8 |
     65, 92, 78, 22, 47, 50, 61, 76, 3, 2, 13, 31, 92, 71, 5 |
     45, 39, 51, 58, 99, 35, 23, 42, 70, 14, 69, 63, 1, 94, 63 |
     13, 97, 43, 15, 66, 1, 72, 43, 86, 98, 46, 83, 61, 81, 27 |
     56, 41, 37, 12, 75, 35, 97, 23, 57, 29, 76, 63, 61, 52, 22 |
     60, 18, 79, 63, 39, 51, 29, 26, 80, 67, 26, 27, 31, 4, 6 |
     81, 84, 32, 69, 59, 62, 83, 6, 66, 1, 85, 85, 72, 43, 8 |
     4, 3, 99, 6, 24, 80, 13, 31, 84, 42, 52, 59, 86, 63, 69 |
     16, 99, 22, 60, 74, 22, 88, 7, 72, 51, 59, 64, 83, 40, 25 |
     5, 96, 79, 57, 96, 30, 72, 59, 89, 48, 57, 38, 78, 56, 24 |
     33, 67, 62, 1, 36, 51, 95, 44, 19, 3, 10, 89, 84, 68, 81 |
     24, 40, 57, 22, 47, 11, 80, 35, 48, 62, 44, 13, 86, 33, 68 |
     26, 14, 13, 39, 9, 1, 68, 27, 39, 51, 47, 1, 7, 71, 75 |
     40, 50, 46, 5, 33, 59, 44, 67, 87, 66, 20, 23, 9, 49, 39 |
     54, 72, 24, 92, 95, 89, 15, 10, 38, 69, 69, 44, 57, 58, 43 |
     81, 52, 4, 67, 85, 44, 50, 56, 47, 25, 45, 69, 92, 68, 58 |
     58, 88, 14, 65, 95, 97, 93, 8, 89, 96, 42, 44, 79, 22, 51 |];

mc = [| 7, 5, 15, 3, 11, 6, 14, 1, 2, 13, 10, 9, 4, 8, 12 |
      2, 12, 8, 1, 3, 4, 15, 11, 5, 14, 13, 10, 7, 9, 6 |
      7, 10, 13, 15, 5, 2, 1, 4, 14, 8, 3, 12, 9, 11, 6 |
      14, 10, 8, 12, 7, 13, 3, 9, 15, 1, 6, 2, 5, 11, 4 |
      9, 1, 6, 4, 12, 7, 13, 5, 15, 14, 11, 3, 2, 8, 10 |
      4, 8, 15, 3, 7, 1, 12, 6, 13, 5, 11, 14, 9, 2, 10 |
      8, 10, 6, 11, 9, 1, 3, 7, 5, 13, 14, 15, 12, 4, 2 |
      1, 4, 15, 6, 2, 9, 10, 13, 14, 12, 8, 7, 11, 3, 5 |
      10, 7, 6, 5, 11, 1, 2, 13, 14, 3, 8, 15, 4, 12, 9 |
      3, 10, 9, 12, 5, 6, 14, 11, 4, 13, 1, 2, 8, 7, 15 |
      11, 1, 8, 3, 12, 13, 7, 15, 9, 2, 4, 5, 6, 14, 10 |
      3, 2, 12, 4, 13, 15, 7, 14, 10, 9, 11, 8, 5, 1, 6 |
      14, 5, 1, 10, 9, 7, 15, 2, 4, 3, 8, 6, 11, 13, 12 |
      2, 15, 3, 11, 1, 8, 12, 7, 4, 10, 14, 9, 5, 6, 13 |
      2, 9, 7, 15, 14, 1, 6, 10, 3, 11, 12, 5, 8, 13, 4 |
      11, 2, 8, 10, 4, 1, 9, 12, 7, 15, 5, 3, 13, 6, 14 |
      7, 8, 11, 13, 1, 15, 3, 2, 14, 6, 4, 5, 12, 10, 9 |
      7, 8, 13, 5, 12, 4, 11, 15, 6, 14, 3, 9, 10, 2, 1 |
      9, 10, 1, 14, 3, 15, 2, 6, 5, 13, 11, 8, 12, 7, 4 |
      11, 5, 4, 2, 14, 13, 15, 12, 7, 6, 10, 9, 1, 8, 3 |
      10, 9, 12, 6, 13, 2, 3, 14, 1, 15, 4, 7, 8, 5, 11 |
      7, 3, 4, 12, 5, 13, 8, 11, 15, 2, 9, 6, 10, 14, 1 |
      12, 2, 15, 8, 4, 9, 3, 5, 1, 14, 13, 6, 11, 7, 10 |
      8, 7, 13, 14, 2, 12, 9, 4, 10, 6, 3, 5, 15, 11, 1 |
      8, 13, 6, 3, 15, 7, 11, 10, 14, 12, 4, 9, 1, 2, 5 |
      12, 7, 2, 9, 11, 15, 10, 14, 3, 5, 1, 13, 6, 8, 4 |
      5, 13, 4, 9, 12, 10, 6, 14, 15, 1, 2, 11, 3, 8, 7 |
      11, 12, 9, 8, 2, 3, 13, 14, 6, 10, 1, 7, 4, 15, 5 |
      9, 6, 2, 3, 4, 12, 14, 11, 15, 1, 8, 13, 5, 7, 10 |
      4, 7, 13, 14, 2, 3, 6, 9, 12, 1, 8, 15, 11, 5, 10 |];
