n = 100;
m = 20;

d = [| 21, 54, 7, 15, 15, 76, 20, 38, 18, 93, 65, 2, 43, 86, 61, 41, 85, 99, 15, 97 |
     10, 54, 56, 85, 59, 19, 48, 82, 69, 24, 11, 35, 20, 82, 73, 18, 87, 89, 2, 76 |
     25, 77, 90, 91, 52, 49, 7, 29, 65, 77, 68, 56, 75, 74, 28, 62, 29, 44, 77, 2 |
     87, 63, 61, 86, 87, 92, 74, 90, 15, 98, 56, 78, 33, 10, 46, 37, 30, 66, 39, 16 |
     62, 18, 78, 79, 90, 40, 4, 22, 80, 21, 4, 80, 73, 67, 78, 84, 93, 86, 63, 87 |
     76, 59, 84, 88, 84, 46, 26, 86, 52, 35, 55, 95, 21, 38, 80, 40, 66, 41, 32, 70 |
     67, 61, 70, 82, 42, 27, 13, 73, 84, 97, 76, 6, 24, 60, 14, 31, 93, 36, 22, 78 |
     42, 84, 13, 56, 55, 7, 81, 67, 96, 15, 81, 42, 88, 35, 15, 11, 63, 3, 93, 85 |
     9, 88, 4, 40, 63, 76, 6, 63, 14, 94, 55, 18, 90, 19, 94, 93, 54, 84, 59, 3 |
     1, 72, 15, 23, 21, 19, 93, 18, 1, 71, 52, 19, 71, 13, 2, 55, 15, 4, 22, 32 |
     4, 84, 63, 58, 76, 63, 24, 13, 21, 49, 18, 9, 83, 10, 72, 47, 6, 37, 87, 1 |
     16, 89, 21, 85, 7, 33, 41, 74, 75, 97, 31, 8, 71, 64, 78, 72, 45, 82, 31, 91 |
     38, 68, 78, 84, 23, 59, 79, 92, 8, 61, 87, 63, 39, 50, 62, 82, 28, 82, 37, 55 |
     46, 83, 13, 73, 1, 44, 54, 69, 67, 31, 4, 71, 79, 89, 62, 23, 34, 72, 42, 54 |
     81, 65, 4, 86, 99, 28, 30, 95, 23, 80, 16, 3, 31, 21, 42, 54, 32, 83, 86, 26 |
     9, 28, 63, 72, 57, 53, 59, 18, 42, 9, 69, 1, 23, 90, 40, 94, 55, 95, 52, 62 |
     37, 54, 48, 11, 55, 62, 18, 64, 56, 67, 55, 80, 47, 5, 34, 90, 62, 22, 12, 29 |
     34, 54, 93, 19, 63, 20, 32, 33, 17, 72, 12, 68, 38, 79, 30, 36, 89, 25, 10, 6 |
     99, 78, 67, 74, 4, 49, 94, 72, 35, 96, 76, 15, 64, 83, 69, 97, 12, 14, 10, 28 |
     4, 55, 71, 92, 25, 24, 10, 33, 48, 48, 10, 67, 20, 17, 27, 16, 35, 38, 62, 66 |
     55, 51, 6, 21, 82, 28, 25, 53, 22, 45, 47, 76, 95, 95, 44, 61, 20, 74, 57, 61 |
     31, 55, 65, 42, 60, 96, 93, 3, 62, 32, 82, 34, 23, 86, 70, 54, 73, 36, 65, 78 |
     23, 1, 84, 45, 85, 66, 94, 18, 26, 68, 61, 71, 6, 37, 23, 89, 67, 24, 99, 77 |
     47, 24, 78, 54, 6, 57, 61, 64, 12, 63, 74, 53, 28, 34, 73, 45, 77, 83, 15, 98 |
     36, 79, 84, 7, 65, 34, 48, 67, 20, 12, 26, 37, 84, 62, 73, 14, 75, 5, 97, 89 |
     78, 53, 41, 48, 7, 34, 20, 32, 87, 17, 74, 91, 89, 63, 76, 93, 69, 12, 80, 81 |
     89, 10, 1, 84, 49, 93, 64, 78, 74, 33, 80, 16, 51, 34, 48, 42, 48, 39, 73, 60 |
     37, 3, 47, 2, 38, 16, 48, 90, 27, 41, 17, 60, 58, 43, 92, 90, 88, 28, 3, 23 |
     69, 51, 2, 98, 27, 43, 92, 20, 5, 11, 7, 29, 61, 9, 30, 19, 20, 83, 86, 87 |
     70, 98, 25, 17, 38, 23, 18, 7, 14, 16, 51, 99, 45, 33, 92, 71, 20, 95, 73, 74 |
     78, 91, 49, 79, 48, 56, 14, 69, 92, 93, 19, 48, 41, 2, 57, 5, 88, 60, 81, 68 |
     51, 33, 73, 60, 38, 81, 26, 28, 32, 47, 98, 70, 94, 94, 86, 63, 74, 69, 62, 70 |
     50, 54, 55, 33, 84, 3, 1, 74, 27, 93, 80, 22, 30, 56, 34, 43, 92, 55, 13, 5 |
     32, 76, 62, 65, 87, 97, 7, 55, 27, 25, 35, 24, 18, 38, 40, 84, 32, 51, 14, 50 |
     29, 33, 41, 64, 63, 18, 76, 68, 23, 73, 79, 44, 71, 34, 10, 80, 53, 45, 60, 8 |
     77, 48, 42, 99, 45, 86, 41, 25, 93, 81, 88, 3, 59, 48, 76, 82, 22, 36, 6, 30 |
     84, 11, 21, 84, 5, 69, 34, 89, 47, 43, 35, 59, 20, 19, 3, 60, 53, 53, 29, 8 |
     55, 66, 97, 56, 67, 25, 40, 59, 84, 98, 3, 97, 46, 12, 68, 27, 59, 43, 39, 28 |
     35, 21, 95, 55, 40, 27, 50, 99, 6, 95, 62, 96, 16, 5, 41, 53, 82, 42, 17, 95 |
     53, 30, 40, 48, 77, 56, 75, 42, 43, 85, 10, 26, 14, 91, 43, 54, 88, 75, 42, 48 |
     10, 85, 93, 64, 86, 72, 14, 36, 90, 98, 18, 12, 79, 84, 8, 85, 53, 12, 97, 50 |
     1, 40, 10, 31, 67, 36, 55, 63, 49, 60, 90, 26, 50, 61, 87, 9, 97, 22, 90, 55 |
     41, 60, 99, 22, 43, 80, 76, 79, 20, 11, 51, 28, 58, 45, 43, 78, 45, 14, 38, 28 |
     15, 60, 98, 52, 48, 21, 54, 28, 91, 31, 43, 36, 74, 35, 2, 54, 52, 45, 58, 93 |
     46, 12, 86, 19, 60, 44, 16, 64, 35, 97, 44, 36, 28, 72, 68, 64, 84, 98, 39, 90 |
     59, 58, 54, 55, 98, 38, 1, 3, 4, 9, 76, 73, 31, 97, 94, 92, 27, 71, 63, 74 |
     35, 64, 1, 17, 88, 79, 4, 4, 48, 12, 16, 5, 27, 59, 66, 15, 21, 93, 49, 5 |
     97, 54, 39, 65, 37, 35, 15, 71, 36, 79, 3, 38, 22, 30, 64, 19, 11, 6, 17, 10 |
     84, 19, 1, 81, 47, 43, 73, 13, 45, 92, 48, 56, 47, 95, 81, 51, 70, 73, 17, 68 |
     86, 22, 6, 67, 79, 66, 4, 58, 4, 38, 41, 25, 68, 50, 5, 28, 64, 42, 86, 61 |
     64, 76, 35, 28, 22, 34, 37, 84, 41, 50, 82, 96, 90, 54, 61, 71, 1, 65, 17, 42 |
     31, 80, 44, 58, 27, 25, 57, 38, 93, 17, 88, 73, 15, 75, 89, 83, 23, 69, 3, 99 |
     49, 30, 55, 99, 34, 65, 32, 61, 24, 72, 16, 32, 37, 21, 82, 50, 54, 58, 68, 86 |
     60, 23, 34, 47, 42, 11, 53, 88, 43, 89, 93, 57, 60, 1, 24, 35, 25, 67, 94, 33 |
     11, 31, 86, 37, 60, 32, 47, 69, 6, 60, 48, 37, 96, 97, 48, 43, 20, 80, 5, 96 |
     32, 25, 15, 26, 84, 11, 30, 73, 44, 85, 39, 24, 95, 2, 29, 66, 57, 13, 13, 96 |
     55, 55, 25, 90, 63, 69, 62, 64, 8, 41, 64, 98, 83, 16, 34, 43, 58, 39, 33, 39 |
     80, 88, 32, 92, 51, 19, 78, 31, 3, 38, 17, 33, 6, 53, 11, 8, 15, 1, 19, 49 |
     34, 84, 28, 26, 58, 21, 86, 38, 78, 53, 56, 9, 7, 45, 57, 46, 60, 63, 93, 70 |
     17, 11, 72, 59, 24, 78, 63, 91, 54, 44, 9, 24, 4, 47, 76, 43, 22, 72, 14, 7 |
     9, 69, 4, 59, 97, 80, 79, 20, 19, 55, 17, 31, 51, 3, 46, 92, 24, 73, 62, 17 |
     84, 44, 16, 69, 82, 73, 9, 73, 34, 71, 92, 83, 82, 31, 96, 1, 5, 58, 44, 23 |
     22, 73, 36, 21, 62, 55, 79, 11, 5, 93, 94, 55, 95, 89, 52, 30, 4, 46, 46, 45 |
     52, 16, 5, 49, 26, 37, 97, 66, 58, 30, 82, 89, 56, 17, 28, 7, 64, 45, 9, 26 |
     34, 60, 3, 7, 52, 62, 41, 84, 54, 32, 15, 64, 78, 71, 30, 53, 33, 75, 53, 86 |
     17, 38, 98, 10, 61, 99, 70, 83, 22, 8, 15, 20, 94, 22, 36, 34, 15, 41, 20, 31 |
     5, 60, 91, 55, 76, 25, 21, 15, 12, 29, 83, 46, 90, 26, 32, 46, 21, 74, 57, 9 |
     74, 43, 1, 70, 49, 61, 34, 54, 36, 6, 95, 16, 96, 3, 1, 6, 64, 50, 78, 38 |
     34, 67, 94, 18, 82, 80, 33, 20, 59, 50, 70, 72, 55, 80, 57, 8, 44, 54, 80, 45 |
     50, 55, 79, 77, 22, 8, 17, 24, 72, 62, 58, 35, 61, 63, 47, 65, 25, 95, 54, 2 |
     18, 71, 76, 25, 76, 45, 85, 7, 72, 98, 96, 17, 52, 17, 99, 19, 19, 69, 40, 19 |
     15, 36, 80, 58, 33, 56, 56, 4, 58, 20, 62, 45, 1, 24, 45, 11, 66, 67, 22, 27 |
     22, 63, 53, 23, 51, 48, 78, 36, 83, 22, 14, 5, 45, 44, 45, 5, 51, 33, 65, 96 |
     70, 62, 15, 78, 99, 74, 72, 4, 52, 89, 36, 13, 60, 42, 6, 20, 79, 61, 70, 73 |
     31, 90, 31, 78, 89, 17, 64, 30, 10, 31, 93, 91, 28, 41, 63, 42, 87, 74, 5, 81 |
     77, 91, 3, 11, 63, 40, 63, 44, 81, 82, 93, 86, 16, 40, 91, 56, 28, 50, 18, 85 |
     41, 59, 89, 17, 22, 37, 60, 1, 23, 94, 69, 20, 64, 31, 97, 81, 34, 34, 97, 80 |
     91, 49, 23, 75, 84, 58, 96, 75, 62, 59, 28, 27, 98, 8, 60, 93, 73, 55, 38, 2 |
     13, 31, 7, 87, 73, 5, 76, 99, 70, 24, 67, 56, 65, 49, 77, 15, 27, 62, 32, 7 |
     71, 65, 91, 25, 36, 74, 89, 19, 70, 22, 53, 51, 45, 45, 1, 17, 94, 58, 77, 53 |
     88, 85, 68, 73, 68, 5, 50, 52, 66, 55, 39, 91, 83, 80, 53, 78, 67, 98, 19, 7 |
     32, 5, 10, 91, 22, 67, 97, 48, 7, 43, 43, 53, 84, 76, 2, 92, 59, 77, 94, 60 |
     59, 27, 13, 26, 32, 24, 84, 88, 36, 50, 26, 15, 61, 90, 63, 12, 14, 17, 45, 17 |
     48, 2, 17, 92, 39, 27, 58, 42, 75, 69, 51, 57, 39, 56, 46, 96, 30, 1, 79, 79 |
     75, 88, 94, 46, 9, 68, 23, 91, 33, 55, 70, 28, 91, 64, 82, 41, 41, 64, 19, 65 |
     32, 47, 5, 63, 70, 88, 68, 47, 61, 69, 71, 84, 26, 9, 83, 67, 99, 51, 76, 58 |
     66, 22, 65, 50, 49, 52, 55, 44, 34, 64, 89, 49, 5, 11, 80, 92, 27, 32, 56, 52 |
     78, 37, 84, 49, 62, 21, 8, 97, 55, 34, 36, 85, 88, 61, 36, 72, 38, 28, 24, 94 |
     90, 90, 81, 39, 3, 81, 96, 42, 53, 19, 21, 90, 35, 61, 66, 94, 94, 17, 10, 11 |
     26, 72, 64, 35, 19, 36, 22, 90, 22, 87, 30, 38, 74, 63, 35, 61, 9, 24, 48, 60 |
     27, 97, 2, 34, 88, 90, 55, 42, 98, 70, 32, 4, 36, 36, 60, 94, 34, 24, 29, 32 |
     89, 92, 22, 6, 78, 68, 58, 30, 39, 23, 56, 11, 70, 78, 15, 21, 34, 52, 63, 96 |
     54, 79, 15, 66, 88, 4, 93, 12, 63, 73, 77, 83, 66, 25, 50, 19, 92, 63, 16, 80 |
     36, 66, 17, 81, 58, 31, 76, 56, 54, 8, 41, 21, 5, 85, 94, 86, 46, 44, 35, 30 |
     46, 62, 21, 74, 48, 20, 41, 63, 5, 63, 20, 65, 97, 14, 34, 72, 94, 40, 49, 73 |
     89, 79, 8, 34, 76, 11, 3, 27, 75, 82, 98, 30, 86, 2, 27, 60, 51, 46, 72, 4 |
     77, 43, 9, 85, 22, 64, 43, 10, 71, 4, 82, 80, 22, 41, 6, 43, 8, 37, 39, 98 |
     97, 90, 4, 88, 49, 60, 37, 40, 25, 94, 32, 89, 7, 94, 15, 22, 55, 19, 91, 34 |
     21, 68, 96, 40, 44, 59, 53, 18, 84, 19, 99, 62, 92, 87, 73, 49, 47, 51, 86, 32 |
     74, 54, 36, 2, 47, 30, 86, 51, 21, 49, 82, 40, 30, 18, 72, 94, 45, 66, 24, 2 |];

mc = [| 16, 7, 20, 14, 2, 8, 10, 11, 13, 12, 5, 3, 9, 6, 18, 4, 1, 17, 15, 19 |
      5, 7, 19, 3, 4, 12, 2, 15, 6, 16, 10, 13, 11, 9, 8, 1, 17, 20, 14, 18 |
      17, 2, 11, 16, 20, 5, 9, 3, 15, 14, 18, 13, 6, 8, 4, 1, 19, 7, 10, 12 |
      8, 15, 2, 19, 14, 20, 10, 18, 5, 7, 16, 1, 9, 12, 6, 11, 4, 17, 13, 3 |
      5, 10, 9, 11, 8, 16, 2, 1, 17, 7, 12, 3, 6, 4, 19, 13, 20, 18, 15, 14 |
      10, 2, 15, 3, 6, 18, 7, 14, 5, 9, 12, 17, 13, 8, 11, 16, 19, 20, 1, 4 |
      3, 15, 8, 7, 4, 20, 11, 5, 9, 14, 18, 10, 1, 12, 13, 17, 16, 19, 2, 6 |
      11, 13, 3, 1, 19, 10, 17, 15, 20, 6, 12, 8, 16, 18, 7, 2, 14, 4, 5, 9 |
      17, 6, 9, 5, 4, 12, 10, 18, 13, 8, 16, 11, 19, 3, 1, 20, 7, 14, 15, 2 |
      16, 3, 10, 17, 2, 19, 12, 8, 14, 11, 6, 5, 15, 20, 18, 9, 1, 7, 4, 13 |
      16, 1, 5, 20, 3, 19, 7, 13, 14, 17, 15, 6, 12, 2, 11, 10, 18, 9, 4, 8 |
      15, 9, 13, 5, 8, 1, 18, 10, 11, 16, 14, 19, 4, 6, 12, 17, 20, 2, 7, 3 |
      4, 7, 12, 3, 6, 11, 19, 16, 8, 1, 13, 5, 14, 2, 10, 18, 9, 15, 20, 17 |
      3, 13, 4, 20, 1, 10, 14, 5, 11, 6, 12, 19, 2, 15, 17, 9, 7, 8, 16, 18 |
      15, 3, 8, 16, 1, 5, 18, 17, 10, 6, 13, 7, 9, 19, 11, 20, 4, 2, 14, 12 |
      5, 1, 7, 12, 19, 4, 16, 8, 9, 20, 10, 18, 3, 14, 11, 13, 6, 17, 15, 2 |
      15, 20, 8, 5, 18, 6, 9, 4, 12, 7, 16, 2, 13, 11, 3, 10, 1, 14, 17, 19 |
      5, 11, 6, 2, 7, 8, 9, 3, 12, 13, 20, 18, 15, 19, 17, 16, 14, 1, 4, 10 |
      15, 9, 7, 13, 17, 2, 10, 12, 16, 1, 19, 8, 4, 11, 3, 5, 18, 20, 14, 6 |
      7, 17, 1, 4, 13, 5, 15, 8, 3, 16, 6, 20, 12, 11, 14, 19, 2, 18, 10, 9 |
      5, 17, 6, 12, 3, 1, 4, 16, 18, 14, 19, 15, 7, 8, 20, 2, 9, 13, 10, 11 |
      3, 1, 19, 9, 17, 2, 16, 7, 14, 18, 12, 10, 6, 20, 15, 5, 11, 8, 4, 13 |
      6, 14, 8, 20, 3, 2, 4, 11, 19, 5, 18, 9, 10, 7, 12, 15, 16, 17, 13, 1 |
      3, 19, 9, 18, 20, 11, 8, 5, 16, 13, 4, 6, 17, 14, 2, 10, 12, 7, 1, 15 |
      17, 1, 14, 4, 18, 2, 19, 3, 7, 11, 15, 10, 8, 6, 9, 16, 20, 12, 13, 5 |
      7, 13, 11, 2, 19, 16, 6, 17, 5, 10, 20, 9, 18, 8, 12, 14, 3, 4, 1, 15 |
      7, 9, 18, 14, 19, 1, 20, 10, 8, 5, 13, 15, 16, 3, 11, 4, 6, 17, 12, 2 |
      5, 6, 17, 4, 14, 12, 20, 13, 19, 1, 18, 9, 2, 10, 15, 7, 8, 11, 16, 3 |
      1, 11, 20, 9, 3, 13, 8, 5, 12, 2, 15, 6, 4, 7, 17, 16, 19, 14, 18, 10 |
      9, 6, 4, 8, 11, 12, 18, 20, 13, 1, 10, 5, 2, 3, 14, 15, 7, 16, 17, 19 |
      19, 4, 14, 18, 6, 1, 11, 15, 20, 9, 12, 3, 10, 5, 17, 8, 13, 16, 7, 2 |
      19, 13, 15, 11, 14, 16, 10, 6, 7, 20, 5, 1, 8, 17, 2, 4, 12, 18, 9, 3 |
      9, 15, 19, 18, 12, 4, 6, 20, 13, 8, 3, 2, 14, 10, 17, 1, 16, 5, 11, 7 |
      8, 17, 20, 14, 12, 16, 18, 9, 11, 7, 19, 5, 13, 2, 6, 15, 10, 4, 1, 3 |
      7, 10, 17, 8, 6, 20, 14, 13, 5, 16, 15, 18, 11, 9, 3, 19, 4, 2, 12, 1 |
      9, 16, 13, 15, 5, 6, 1, 4, 18, 7, 10, 11, 12, 8, 17, 20, 14, 2, 19, 3 |
      12, 15, 9, 16, 11, 18, 3, 7, 1, 20, 8, 2, 13, 10, 17, 19, 5, 14, 4, 6 |
      3, 16, 8, 15, 1, 6, 7, 4, 9, 14, 19, 12, 5, 17, 11, 20, 18, 13, 2, 10 |
      1, 7, 6, 9, 17, 4, 3, 10, 16, 12, 11, 18, 13, 19, 8, 5, 20, 2, 14, 15 |
      20, 1, 16, 2, 13, 8, 4, 12, 3, 15, 7, 17, 18, 10, 11, 9, 14, 5, 19, 6 |
      18, 14, 10, 15, 2, 6, 5, 16, 4, 3, 8, 7, 13, 1, 9, 12, 20, 19, 11, 17 |
      14, 13, 7, 3, 18, 1, 12, 5, 9, 20, 4, 11, 17, 6, 8, 10, 2, 19, 16, 15 |
      15, 2, 20, 7, 16, 18, 9, 5, 3, 14, 8, 13, 6, 17, 12, 19, 10, 11, 1, 4 |
      12, 1, 2, 14, 8, 4, 5, 10, 16, 18, 9, 3, 6, 7, 15, 19, 13, 20, 11, 17 |
      1, 19, 2, 4, 12, 11, 3, 13, 10, 7, 18, 14, 5, 6, 15, 8, 20, 9, 17, 16 |
      9, 20, 10, 6, 16, 5, 14, 15, 7, 19, 3, 8, 4, 12, 2, 13, 11, 17, 1, 18 |
      3, 20, 2, 4, 19, 10, 16, 9, 17, 12, 1, 8, 11, 5, 14, 18, 6, 15, 13, 7 |
      13, 3, 5, 14, 1, 4, 6, 2, 8, 10, 18, 7, 20, 19, 16, 17, 12, 9, 11, 15 |
      9, 19, 2, 7, 1, 12, 4, 10, 16, 3, 20, 13, 14, 17, 6, 5, 11, 8, 15, 18 |
      5, 3, 11, 8, 9, 13, 12, 14, 16, 7, 19, 17, 2, 6, 18, 4, 1, 20, 15, 10 |
      8, 16, 13, 1, 2, 6, 4, 5, 3, 20, 14, 15, 18, 7, 9, 10, 12, 11, 19, 17 |
      9, 15, 16, 4, 12, 7, 6, 8, 20, 13, 18, 19, 17, 3, 2, 1, 14, 10, 11, 5 |
      9, 16, 17, 8, 20, 19, 18, 5, 4, 7, 10, 2, 12, 1, 3, 6, 13, 11, 15, 14 |
      17, 16, 1, 19, 18, 20, 5, 2, 11, 13, 6, 10, 8, 12, 7, 4, 9, 15, 14, 3 |
      6, 7, 8, 17, 3, 16, 19, 20, 5, 2, 4, 10, 15, 11, 13, 14, 12, 1, 18, 9 |
      7, 1, 6, 14, 13, 16, 2, 10, 18, 3, 9, 15, 20, 4, 17, 8, 11, 19, 12, 5 |
      2, 4, 11, 1, 10, 13, 16, 8, 15, 17, 20, 7, 5, 19, 6, 18, 14, 12, 3, 9 |
      17, 15, 10, 12, 20, 14, 19, 4, 9, 5, 8, 2, 7, 11, 18, 13, 1, 3, 6, 16 |
      6, 8, 9, 5, 1, 12, 10, 11, 17, 3, 19, 14, 7, 18, 13, 2, 20, 15, 4, 16 |
      12, 16, 4, 1, 2, 13, 9, 15, 11, 6, 18, 20, 19, 8, 7, 10, 17, 3, 5, 14 |
      11, 16, 2, 13, 19, 7, 8, 3, 10, 9, 1, 17, 12, 15, 4, 20, 6, 14, 5, 18 |
      16, 5, 14, 2, 17, 19, 9, 12, 3, 10, 13, 11, 18, 15, 8, 6, 20, 7, 1, 4 |
      3, 19, 4, 10, 9, 5, 18, 2, 11, 13, 6, 12, 17, 16, 7, 15, 8, 1, 20, 14 |
      14, 13, 17, 5, 12, 18, 2, 15, 6, 10, 9, 1, 3, 4, 8, 11, 20, 16, 19, 7 |
      17, 6, 16, 19, 13, 9, 15, 11, 3, 8, 14, 10, 2, 18, 1, 7, 4, 12, 5, 20 |
      11, 20, 3, 1, 13, 10, 17, 5, 12, 19, 18, 2, 14, 15, 16, 8, 7, 4, 6, 9 |
      6, 2, 15, 5, 13, 20, 18, 19, 4, 10, 8, 11, 9, 12, 7, 14, 1, 3, 17, 16 |
      8, 9, 16, 11, 6, 14, 5, 10, 18, 12, 4, 13, 15, 20, 7, 19, 17, 3, 1, 2 |
      17, 2, 18, 3, 9, 14, 8, 15, 6, 16, 7, 13, 19, 11, 10, 20, 5, 1, 4, 12 |
      3, 9, 17, 1, 4, 18, 2, 8, 14, 19, 16, 6, 12, 11, 20, 10, 15, 7, 13, 5 |
      12, 15, 10, 8, 20, 16, 18, 19, 9, 2, 14, 7, 17, 6, 1, 5, 11, 4, 13, 3 |
      20, 10, 1, 18, 13, 3, 12, 8, 11, 17, 9, 5, 6, 15, 2, 7, 16, 14, 19, 4 |
      12, 6, 19, 15, 2, 14, 8, 18, 5, 17, 9, 11, 1, 16, 10, 13, 7, 3, 4, 20 |
      16, 3, 10, 11, 6, 2, 5, 15, 7, 8, 12, 4, 13, 20, 19, 1, 18, 9, 14, 17 |
      15, 13, 4, 2, 8, 5, 16, 6, 14, 18, 1, 12, 20, 10, 7, 17, 9, 19, 3, 11 |
      1, 16, 19, 7, 4, 3, 12, 13, 11, 2, 20, 17, 14, 9, 8, 15, 5, 6, 10, 18 |
      9, 8, 16, 6, 19, 17, 5, 7, 10, 11, 1, 14, 13, 3, 15, 12, 18, 2, 20, 4 |
      5, 18, 11, 4, 16, 13, 14, 19, 3, 15, 6, 7, 1, 12, 20, 8, 9, 17, 2, 10 |
      19, 9, 15, 3, 10, 2, 7, 18, 1, 14, 13, 16, 17, 5, 8, 4, 11, 12, 6, 20 |
      7, 4, 17, 18, 2, 9, 13, 12, 5, 14, 20, 3, 19, 6, 11, 16, 1, 8, 15, 10 |
      19, 18, 2, 15, 3, 9, 1, 10, 4, 8, 7, 17, 6, 16, 11, 14, 12, 20, 5, 13 |
      6, 16, 2, 11, 17, 5, 20, 19, 12, 3, 7, 13, 4, 10, 8, 14, 18, 9, 15, 1 |
      15, 13, 1, 14, 18, 3, 9, 12, 4, 16, 2, 20, 17, 5, 19, 6, 11, 10, 8, 7 |
      13, 11, 4, 1, 7, 17, 16, 2, 19, 18, 20, 6, 10, 8, 5, 9, 3, 15, 12, 14 |
      3, 2, 16, 10, 15, 4, 9, 13, 8, 18, 5, 20, 11, 12, 14, 7, 6, 17, 19, 1 |
      7, 14, 17, 18, 12, 1, 19, 2, 8, 3, 15, 6, 9, 10, 4, 13, 20, 16, 11, 5 |
      14, 8, 18, 5, 3, 13, 15, 12, 11, 7, 1, 20, 9, 10, 16, 6, 4, 19, 17, 2 |
      11, 7, 12, 19, 6, 17, 10, 16, 15, 1, 20, 14, 4, 8, 9, 3, 18, 13, 5, 2 |
      6, 20, 10, 14, 17, 11, 12, 3, 8, 5, 4, 18, 2, 19, 7, 13, 1, 16, 9, 15 |
      6, 2, 13, 4, 15, 14, 17, 16, 10, 3, 11, 5, 8, 12, 1, 9, 18, 7, 20, 19 |
      15, 4, 2, 3, 8, 11, 9, 12, 19, 17, 7, 5, 13, 1, 10, 14, 16, 18, 6, 20 |
      3, 14, 20, 6, 5, 15, 17, 11, 1, 7, 9, 12, 2, 16, 10, 18, 19, 4, 8, 13 |
      20, 10, 4, 13, 5, 9, 17, 2, 11, 19, 1, 14, 3, 7, 8, 6, 15, 18, 12, 16 |
      20, 14, 5, 4, 15, 12, 6, 16, 10, 2, 11, 13, 17, 8, 7, 9, 3, 1, 19, 18 |
      19, 14, 7, 6, 10, 5, 8, 1, 3, 17, 11, 13, 16, 9, 12, 2, 20, 4, 18, 15 |
      19, 7, 6, 18, 15, 16, 14, 5, 8, 20, 13, 11, 4, 9, 17, 2, 1, 12, 10, 3 |
      14, 18, 1, 19, 10, 2, 13, 6, 17, 9, 7, 15, 16, 11, 8, 12, 20, 4, 3, 5 |
      15, 3, 18, 7, 4, 9, 8, 14, 6, 20, 10, 2, 5, 13, 1, 17, 16, 11, 19, 12 |
      2, 14, 19, 1, 6, 18, 16, 8, 15, 17, 4, 3, 10, 12, 7, 5, 9, 11, 13, 20 |
      18, 8, 16, 7, 9, 13, 11, 2, 4, 15, 17, 1, 6, 20, 5, 19, 14, 3, 10, 12 |];
