n = 30;
m = 15;

d = [| 4, 52, 12, 4, 39, 16, 72, 67, 3, 97, 96, 19, 16, 19, 37 |
     70, 51, 78, 73, 79, 35, 32, 69, 64, 47, 59, 78, 67, 20, 72 |
     7, 87, 4, 26, 45, 91, 88, 68, 86, 94, 64, 2, 57, 74, 62 |
     28, 72, 96, 42, 58, 69, 77, 87, 58, 98, 83, 39, 48, 63, 77 |
     33, 99, 57, 57, 99, 23, 52, 91, 81, 2, 39, 41, 94, 56, 33 |
     50, 94, 19, 52, 34, 60, 88, 13, 1, 2, 74, 46, 78, 83, 69 |
     46, 48, 12, 71, 13, 44, 72, 68, 71, 37, 94, 43, 64, 65, 45 |
     37, 75, 79, 53, 90, 73, 80, 19, 22, 27, 52, 94, 31, 15, 89 |
     54, 84, 77, 10, 23, 82, 30, 24, 98, 73, 14, 27, 8, 82, 10 |
     48, 81, 70, 47, 55, 33, 16, 6, 35, 14, 34, 42, 51, 15, 70 |
     85, 78, 10, 99, 97, 43, 30, 62, 14, 23, 71, 6, 89, 8, 64 |
     80, 59, 98, 39, 40, 58, 73, 94, 27, 63, 5, 26, 65, 56, 86 |
     4, 2, 25, 15, 87, 41, 51, 95, 7, 27, 15, 19, 51, 66, 26 |
     13, 93, 48, 58, 65, 5, 80, 2, 23, 54, 14, 33, 54, 87, 50 |
     81, 46, 71, 3, 45, 38, 87, 71, 29, 65, 20, 94, 1, 14, 42 |
     94, 85, 76, 4, 19, 34, 71, 49, 66, 90, 43, 87, 72, 94, 17 |
     53, 13, 7, 78, 66, 60, 71, 84, 42, 47, 60, 40, 77, 52, 68 |
     31, 50, 91, 62, 84, 89, 63, 62, 68, 15, 49, 16, 57, 55, 68 |
     88, 66, 87, 98, 60, 63, 29, 89, 54, 49, 87, 54, 76, 87, 24 |
     38, 17, 94, 22, 24, 26, 64, 6, 70, 60, 95, 1, 46, 24, 50 |
     76, 41, 55, 66, 12, 94, 97, 21, 92, 11, 49, 71, 99, 87, 59 |
     61, 70, 9, 67, 95, 80, 68, 85, 71, 83, 12, 82, 46, 76, 90 |
     74, 67, 37, 84, 66, 64, 14, 57, 45, 19, 3, 23, 77, 16, 1 |
     67, 72, 50, 62, 58, 82, 41, 16, 91, 96, 42, 46, 9, 8, 71 |
     66, 19, 12, 54, 92, 21, 37, 3, 17, 81, 69, 19, 91, 31, 40 |
     83, 75, 4, 97, 43, 44, 51, 13, 45, 81, 16, 6, 18, 50, 30 |
     39, 14, 35, 98, 96, 14, 53, 50, 98, 77, 89, 91, 21, 95, 24 |
     52, 93, 54, 92, 81, 37, 21, 56, 45, 2, 2, 74, 10, 36, 81 |
     41, 26, 51, 16, 87, 29, 2, 82, 47, 64, 43, 65, 30, 95, 10 |
     13, 4, 88, 93, 24, 54, 25, 86, 62, 92, 93, 2, 21, 57, 95 |];

mc = [| 11, 3, 5, 13, 4, 14, 2, 7, 6, 8, 10, 9, 12, 15, 1 |
      13, 3, 12, 6, 8, 1, 5, 11, 9, 10, 14, 15, 2, 4, 7 |
      10, 8, 9, 5, 3, 13, 7, 2, 6, 4, 1, 15, 12, 11, 14 |
      11, 3, 10, 12, 1, 8, 2, 5, 15, 7, 13, 4, 14, 6, 9 |
      8, 10, 2, 5, 1, 3, 13, 6, 12, 14, 11, 4, 9, 7, 15 |
      7, 10, 1, 11, 12, 8, 5, 14, 2, 9, 4, 13, 15, 3, 6 |
      4, 8, 1, 15, 12, 2, 14, 6, 3, 13, 7, 9, 5, 10, 11 |
      1, 8, 3, 7, 12, 5, 2, 13, 9, 11, 10, 14, 4, 15, 6 |
      3, 12, 11, 15, 6, 5, 1, 14, 10, 8, 9, 2, 13, 7, 4 |
      13, 1, 10, 8, 14, 12, 7, 9, 15, 11, 5, 2, 6, 4, 3 |
      6, 3, 9, 14, 8, 4, 12, 1, 11, 13, 2, 10, 7, 5, 15 |
      6, 1, 14, 12, 3, 15, 11, 13, 7, 2, 9, 10, 5, 8, 4 |
      11, 3, 14, 1, 12, 2, 15, 4, 6, 9, 8, 7, 13, 5, 10 |
      6, 15, 11, 13, 5, 10, 12, 14, 9, 1, 7, 2, 8, 4, 3 |
      8, 2, 6, 4, 5, 11, 9, 14, 13, 10, 1, 3, 12, 15, 7 |
      14, 3, 4, 7, 12, 1, 13, 11, 9, 2, 10, 15, 6, 5, 8 |
      15, 11, 10, 1, 7, 13, 12, 2, 6, 8, 14, 9, 4, 3, 5 |
      14, 1, 7, 2, 9, 8, 3, 4, 6, 12, 15, 11, 13, 5, 10 |
      5, 14, 8, 10, 4, 15, 12, 11, 3, 13, 7, 2, 6, 1, 9 |
      3, 5, 2, 12, 7, 6, 9, 14, 13, 8, 4, 10, 15, 11, 1 |
      1, 6, 15, 11, 8, 3, 7, 14, 13, 4, 2, 5, 12, 10, 9 |
      14, 5, 2, 11, 6, 15, 4, 3, 9, 7, 8, 10, 13, 1, 12 |
      14, 11, 13, 15, 1, 3, 2, 6, 7, 4, 8, 5, 10, 12, 9 |
      2, 1, 10, 8, 15, 14, 6, 9, 11, 13, 7, 3, 5, 4, 12 |
      10, 2, 14, 3, 7, 9, 11, 6, 8, 13, 5, 1, 4, 12, 15 |
      4, 3, 7, 11, 2, 6, 5, 14, 9, 13, 8, 1, 12, 10, 15 |
      8, 12, 9, 10, 2, 14, 4, 7, 5, 6, 11, 13, 3, 15, 1 |
      14, 5, 1, 9, 11, 15, 7, 10, 4, 6, 2, 8, 3, 12, 13 |
      9, 7, 1, 13, 2, 5, 8, 3, 11, 14, 6, 12, 10, 4, 15 |
      2, 14, 5, 4, 15, 13, 8, 9, 6, 11, 7, 3, 1, 12, 10 |];
