n = 30;
m = 15;

d = [| 89, 67, 72, 20, 97, 55, 63, 46, 37, 88, 27, 23, 71, 82, 29 |
     70, 65, 95, 72, 71, 79, 88, 68, 17, 29, 92, 68, 87, 3, 84 |
     10, 98, 88, 66, 94, 66, 86, 86, 89, 44, 64, 54, 52, 28, 76 |
     81, 67, 10, 87, 76, 32, 7, 84, 79, 44, 60, 84, 3, 41, 28 |
     13, 78, 51, 86, 96, 66, 72, 4, 76, 98, 40, 93, 83, 45, 32 |
     78, 70, 10, 56, 83, 32, 38, 40, 99, 20, 88, 44, 78, 68, 58 |
     52, 23, 27, 10, 82, 65, 6, 34, 21, 12, 5, 68, 23, 57, 27 |
     44, 52, 30, 37, 93, 9, 61, 12, 8, 20, 16, 39, 77, 86, 90 |
     31, 67, 71, 32, 21, 77, 42, 83, 21, 14, 79, 4, 81, 33, 83 |
     83, 83, 97, 83, 22, 63, 15, 82, 23, 16, 80, 92, 65, 59, 89 |
     20, 86, 24, 67, 90, 57, 51, 30, 67, 75, 85, 96, 84, 89, 46 |
     12, 88, 56, 17, 31, 61, 94, 65, 1, 41, 92, 51, 48, 12, 10 |
     12, 33, 20, 99, 22, 98, 35, 61, 35, 62, 15, 97, 47, 53, 30 |
     51, 2, 54, 71, 56, 16, 60, 7, 41, 83, 53, 17, 96, 83, 99 |
     6, 2, 78, 18, 48, 89, 82, 42, 12, 98, 62, 77, 39, 60, 9 |
     53, 61, 83, 6, 63, 9, 52, 24, 45, 36, 84, 12, 63, 66, 66 |
     21, 91, 36, 90, 89, 12, 45, 19, 89, 49, 35, 46, 17, 6, 44 |
     90, 58, 20, 94, 10, 44, 17, 13, 5, 85, 25, 28, 24, 63, 82 |
     40, 31, 83, 17, 41, 15, 2, 97, 22, 95, 72, 62, 92, 20, 91 |
     61, 62, 2, 79, 6, 90, 43, 77, 69, 72, 88, 61, 15, 96, 76 |
     63, 62, 92, 46, 2, 84, 86, 43, 73, 7, 18, 63, 82, 72, 30 |
     12, 45, 47, 51, 32, 84, 76, 56, 78, 96, 94, 72, 27, 80, 87 |
     44, 56, 14, 15, 24, 17, 68, 27, 51, 93, 12, 5, 52, 16, 41 |
     31, 25, 35, 26, 42, 27, 95, 76, 59, 94, 23, 39, 55, 83, 38 |
     37, 20, 62, 98, 17, 14, 55, 98, 31, 83, 23, 75, 12, 39, 82 |
     12, 76, 34, 67, 41, 4, 29, 56, 40, 63, 8, 56, 99, 58, 80 |
     48, 29, 64, 56, 86, 65, 28, 29, 17, 25, 87, 50, 78, 6, 55 |
     22, 76, 77, 98, 76, 62, 73, 8, 8, 43, 7, 93, 31, 92, 47 |
     1, 69, 56, 47, 56, 34, 12, 24, 14, 44, 34, 57, 42, 74, 80 |
     42, 98, 75, 81, 84, 62, 63, 21, 30, 27, 21, 56, 35, 54, 3 |];

mc = [| 2, 8, 5, 14, 7, 13, 9, 1, 6, 3, 12, 15, 4, 11, 10 |
      5, 2, 6, 14, 10, 1, 11, 3, 7, 12, 15, 9, 13, 8, 4 |
      3, 6, 7, 14, 2, 10, 4, 9, 1, 5, 15, 11, 13, 12, 8 |
      15, 7, 6, 12, 4, 2, 3, 11, 1, 8, 13, 14, 10, 5, 9 |
      2, 8, 5, 1, 6, 7, 4, 3, 15, 10, 14, 13, 12, 11, 9 |
      3, 14, 11, 6, 8, 10, 5, 9, 15, 2, 12, 1, 13, 4, 7 |
      14, 9, 6, 13, 4, 1, 3, 12, 5, 15, 10, 8, 2, 11, 7 |
      11, 12, 13, 7, 2, 10, 3, 4, 8, 9, 14, 1, 15, 5, 6 |
      1, 5, 14, 13, 12, 9, 8, 11, 4, 15, 10, 7, 6, 2, 3 |
      4, 9, 5, 11, 14, 12, 2, 3, 7, 6, 15, 10, 13, 1, 8 |
      11, 9, 3, 2, 7, 14, 13, 4, 12, 15, 1, 5, 6, 8, 10 |
      5, 11, 4, 3, 14, 8, 2, 1, 13, 12, 15, 6, 9, 10, 7 |
      8, 5, 6, 7, 15, 12, 13, 3, 4, 14, 9, 1, 10, 11, 2 |
      10, 6, 8, 1, 15, 11, 4, 3, 2, 9, 12, 13, 7, 14, 5 |
      4, 12, 3, 6, 7, 2, 14, 15, 1, 8, 11, 5, 9, 10, 13 |
      9, 15, 6, 8, 14, 1, 10, 3, 13, 11, 5, 2, 4, 7, 12 |
      13, 4, 1, 2, 11, 14, 12, 5, 10, 6, 15, 8, 3, 9, 7 |
      6, 11, 8, 5, 4, 7, 10, 12, 2, 14, 1, 9, 3, 15, 13 |
      10, 13, 6, 2, 9, 11, 7, 12, 3, 15, 8, 4, 1, 5, 14 |
      8, 9, 14, 12, 13, 15, 1, 6, 2, 3, 11, 5, 10, 4, 7 |
      8, 13, 11, 3, 2, 7, 15, 1, 6, 12, 9, 14, 4, 5, 10 |
      6, 4, 1, 15, 11, 5, 8, 14, 2, 7, 13, 12, 3, 10, 9 |
      12, 10, 4, 8, 2, 15, 9, 3, 5, 14, 1, 6, 7, 11, 13 |
      12, 10, 4, 8, 9, 1, 11, 14, 2, 15, 5, 6, 13, 7, 3 |
      13, 7, 2, 5, 11, 4, 6, 14, 3, 12, 8, 1, 15, 9, 10 |
      8, 13, 10, 9, 3, 7, 4, 12, 11, 6, 15, 2, 14, 1, 5 |
      9, 11, 13, 2, 6, 4, 8, 15, 1, 10, 12, 5, 7, 14, 3 |
      4, 2, 15, 7, 9, 5, 12, 10, 6, 8, 11, 13, 3, 1, 14 |
      1, 5, 3, 6, 10, 12, 9, 8, 4, 2, 15, 13, 14, 11, 7 |
      12, 1, 7, 11, 14, 5, 4, 15, 13, 10, 9, 2, 8, 3, 6 |];
