n = 15;
m = 15;

d = [| 97, 76, 1, 16, 6, 42, 25, 75, 74, 72, 57, 95, 93, 91, 3 |
     97, 98, 5, 97, 16, 36, 41, 4, 81, 77, 37, 74, 72, 40, 55 |
     19, 27, 82, 97, 54, 50, 25, 81, 51, 56, 1, 98, 14, 35, 37 |
     67, 53, 90, 73, 32, 78, 8, 80, 13, 85, 42, 7, 66, 16, 27 |
     36, 11, 27, 97, 68, 58, 46, 73, 5, 37, 52, 82, 66, 51, 40 |
     34, 31, 38, 66, 20, 69, 80, 88, 92, 29, 26, 34, 91, 46, 44 |
     6, 33, 43, 96, 34, 9, 58, 83, 46, 20, 42, 98, 37, 41, 85 |
     67, 46, 93, 1, 29, 38, 4, 69, 81, 36, 37, 80, 13, 47, 73 |
     46, 17, 92, 84, 67, 79, 34, 24, 30, 88, 34, 11, 90, 8, 77 |
     12, 28, 32, 73, 88, 9, 76, 49, 82, 77, 75, 89, 7, 75, 11 |
     47, 60, 12, 8, 89, 97, 77, 22, 47, 66, 65, 56, 7, 45, 53 |
     65, 50, 58, 3, 6, 82, 42, 28, 46, 38, 25, 36, 19, 24, 80 |
     8, 68, 95, 8, 86, 45, 94, 8, 33, 27, 22, 80, 52, 71, 89 |
     3, 20, 67, 65, 59, 39, 30, 63, 45, 81, 83, 1, 15, 73, 60 |
     11, 49, 74, 12, 47, 57, 15, 46, 64, 51, 66, 61, 53, 84, 13 |];

mc = [| 7, 14, 9, 11, 6, 12, 15, 1, 13, 4, 8, 10, 3, 5, 2 |
      2, 15, 1, 3, 8, 14, 10, 7, 9, 12, 4, 11, 13, 5, 6 |
      8, 3, 13, 4, 11, 2, 10, 15, 12, 7, 14, 6, 1, 9, 5 |
      14, 1, 8, 4, 13, 7, 12, 6, 15, 11, 10, 5, 3, 9, 2 |
      7, 11, 13, 10, 15, 4, 6, 2, 9, 1, 3, 5, 12, 14, 8 |
      3, 5, 1, 4, 8, 11, 6, 9, 10, 7, 13, 12, 2, 15, 14 |
      6, 15, 1, 8, 11, 7, 10, 13, 3, 5, 12, 4, 14, 9, 2 |
      11, 14, 2, 6, 1, 8, 7, 3, 5, 15, 4, 9, 12, 13, 10 |
      8, 11, 15, 13, 10, 7, 5, 2, 9, 1, 3, 14, 6, 12, 4 |
      6, 15, 7, 4, 1, 8, 13, 14, 11, 2, 5, 9, 12, 3, 10 |
      2, 11, 14, 9, 13, 10, 3, 6, 4, 8, 12, 1, 15, 7, 5 |
      9, 6, 8, 10, 1, 5, 14, 15, 4, 3, 11, 12, 2, 13, 7 |
      9, 15, 3, 10, 11, 5, 12, 13, 2, 6, 1, 4, 7, 8, 14 |
      4, 13, 5, 2, 3, 1, 15, 9, 10, 6, 8, 11, 12, 14, 7 |
      9, 3, 8, 15, 4, 7, 5, 10, 6, 2, 13, 12, 1, 11, 14 |];
