n = 20;
m = 20;

d = [| 90, 7, 75, 30, 42, 17, 7, 28, 54, 36, 5, 5, 98, 42, 31, 25, 71, 15, 93, 66 |
     35, 2, 55, 83, 88, 25, 64, 45, 37, 48, 67, 2, 53, 5, 3, 5, 73, 18, 85, 82 |
     16, 81, 86, 72, 3, 9, 70, 11, 36, 83, 75, 89, 99, 25, 55, 27, 54, 75, 57, 35 |
     47, 12, 9, 52, 33, 85, 89, 10, 77, 98, 88, 70, 99, 95, 87, 55, 54, 11, 61, 66 |
     76, 94, 43, 20, 53, 84, 69, 9, 6, 11, 3, 11, 61, 66, 12, 32, 9, 29, 35, 91 |
     11, 11, 9, 36, 4, 72, 13, 24, 72, 71, 76, 51, 30, 29, 30, 13, 78, 45, 26, 86 |
     11, 19, 17, 57, 38, 19, 28, 25, 30, 53, 52, 26, 23, 27, 1, 28, 64, 25, 5, 64 |
     89, 92, 98, 34, 53, 62, 18, 56, 51, 25, 49, 11, 95, 24, 96, 16, 10, 2, 22, 53 |
     51, 54, 4, 54, 59, 87, 16, 21, 45, 75, 73, 49, 63, 70, 61, 20, 53, 99, 18, 60 |
     65, 96, 90, 24, 74, 88, 24, 26, 14, 17, 4, 52, 2, 2, 8, 54, 51, 76, 67, 14 |
     31, 5, 15, 49, 12, 47, 53, 24, 64, 26, 67, 28, 2, 14, 2, 86, 88, 96, 68, 1 |
     68, 3, 66, 12, 69, 95, 59, 94, 58, 68, 38, 19, 43, 16, 58, 96, 69, 60, 23, 93 |
     27, 26, 73, 14, 97, 28, 87, 76, 12, 18, 39, 84, 97, 89, 76, 96, 38, 59, 41, 3 |
     49, 78, 42, 73, 81, 31, 70, 24, 98, 76, 67, 89, 95, 79, 24, 64, 84, 89, 47, 90 |
     64, 78, 66, 5, 33, 33, 90, 93, 51, 59, 25, 69, 87, 78, 58, 22, 34, 94, 36, 25 |
     11, 18, 38, 70, 23, 82, 43, 47, 74, 76, 84, 59, 39, 86, 38, 66, 98, 12, 14, 80 |
     59, 51, 30, 10, 17, 77, 34, 85, 74, 63, 73, 14, 35, 4, 30, 62, 23, 47, 86, 86 |
     33, 51, 97, 23, 25, 31, 38, 39, 54, 36, 13, 40, 9, 38, 43, 44, 35, 24, 55, 86 |
     81, 66, 80, 94, 20, 64, 71, 75, 18, 73, 26, 96, 70, 12, 60, 72, 51, 28, 24, 70 |
     35, 11, 42, 58, 9, 61, 27, 93, 36, 90, 83, 20, 33, 51, 42, 56, 5, 5, 64, 33 |];

mc = [| 15, 1, 16, 9, 10, 20, 3, 11, 6, 2, 17, 5, 14, 4, 7, 13, 12, 19, 8, 18 |
      4, 5, 8, 1, 12, 19, 14, 18, 20, 9, 10, 7, 11, 3, 15, 17, 13, 16, 6, 2 |
      16, 2, 15, 7, 3, 9, 10, 6, 4, 13, 20, 11, 5, 17, 1, 18, 19, 12, 8, 14 |
      14, 9, 15, 20, 17, 7, 5, 1, 4, 8, 12, 3, 18, 16, 11, 6, 19, 10, 2, 13 |
      12, 8, 16, 3, 17, 7, 20, 19, 2, 18, 5, 11, 13, 15, 6, 10, 4, 1, 9, 14 |
      4, 12, 18, 7, 8, 1, 13, 10, 2, 16, 3, 11, 9, 20, 5, 15, 14, 19, 17, 6 |
      14, 15, 1, 2, 8, 11, 5, 6, 4, 10, 18, 20, 16, 17, 19, 3, 13, 9, 7, 12 |
      13, 18, 14, 2, 8, 11, 7, 17, 6, 10, 3, 20, 12, 5, 1, 19, 9, 15, 4, 16 |
      11, 19, 4, 1, 18, 3, 6, 8, 15, 20, 17, 14, 9, 2, 16, 12, 7, 13, 5, 10 |
      19, 7, 15, 10, 20, 12, 4, 17, 3, 2, 18, 8, 5, 16, 14, 11, 6, 1, 9, 13 |
      19, 2, 1, 12, 3, 20, 13, 7, 18, 15, 10, 4, 8, 9, 11, 17, 16, 14, 5, 6 |
      19, 8, 12, 18, 5, 14, 20, 1, 6, 10, 3, 7, 9, 15, 11, 13, 16, 17, 2, 4 |
      17, 2, 3, 5, 20, 15, 4, 6, 12, 13, 11, 9, 8, 1, 7, 19, 14, 10, 18, 16 |
      20, 15, 11, 18, 19, 6, 10, 16, 3, 13, 17, 7, 4, 1, 5, 2, 9, 8, 14, 12 |
      2, 11, 14, 12, 6, 17, 15, 5, 9, 20, 10, 3, 7, 19, 4, 13, 18, 8, 16, 1 |
      16, 20, 14, 2, 18, 12, 9, 15, 19, 4, 11, 6, 8, 1, 3, 13, 7, 10, 17, 5 |
      8, 5, 1, 6, 9, 15, 20, 14, 12, 16, 10, 19, 17, 4, 13, 18, 11, 7, 2, 3 |
      6, 2, 19, 13, 8, 20, 17, 9, 15, 14, 18, 16, 12, 7, 1, 3, 10, 5, 11, 4 |
      4, 16, 18, 7, 8, 11, 14, 1, 2, 17, 3, 20, 13, 19, 10, 12, 9, 6, 15, 5 |
      1, 12, 9, 16, 2, 13, 8, 15, 3, 5, 6, 11, 4, 10, 14, 20, 18, 7, 17, 19 |];
