n = 50;
m = 20;

d = [| 52, 40, 48, 57, 29, 24, 98, 39, 24, 21, 49, 88, 25, 79, 99, 86, 15, 7, 93, 16 |
     83, 72, 35, 49, 4, 89, 20, 50, 59, 8, 4, 47, 13, 52, 12, 13, 25, 21, 36, 70 |
     70, 5, 79, 29, 25, 63, 81, 12, 45, 19, 99, 8, 87, 52, 91, 36, 11, 68, 75, 40 |
     3, 64, 97, 30, 74, 85, 18, 94, 4, 69, 45, 93, 5, 8, 46, 81, 18, 42, 55, 23 |
     50, 20, 46, 47, 92, 21, 9, 43, 93, 73, 66, 53, 35, 47, 94, 72, 3, 17, 25, 20 |
     76, 27, 49, 93, 88, 64, 49, 47, 8, 9, 39, 40, 29, 45, 31, 4, 83, 50, 89, 13 |
     75, 96, 80, 63, 3, 62, 62, 60, 6, 58, 56, 6, 79, 23, 40, 8, 78, 32, 13, 27 |
     12, 63, 23, 34, 83, 77, 83, 45, 13, 32, 88, 36, 19, 79, 53, 32, 57, 11, 11, 59 |
     95, 97, 24, 96, 58, 91, 68, 40, 13, 87, 82, 88, 13, 14, 29, 33, 71, 84, 2, 15 |
     64, 42, 86, 45, 36, 41, 21, 67, 69, 57, 87, 84, 89, 4, 35, 57, 95, 21, 70, 20 |
     45, 45, 32, 84, 27, 42, 24, 30, 11, 97, 52, 43, 42, 62, 66, 45, 65, 94, 24, 18 |
     18, 26, 86, 56, 85, 25, 26, 51, 78, 68, 46, 88, 7, 5, 39, 52, 51, 80, 32, 64 |
     80, 42, 18, 18, 60, 63, 24, 95, 98, 79, 86, 23, 44, 76, 97, 99, 13, 4, 23, 43 |
     27, 15, 60, 52, 92, 99, 19, 90, 78, 31, 8, 81, 31, 89, 47, 71, 43, 4, 66, 77 |
     90, 26, 78, 32, 59, 93, 4, 6, 99, 4, 57, 75, 34, 78, 89, 44, 11, 31, 50, 36 |
     56, 91, 13, 96, 75, 57, 46, 19, 86, 62, 68, 93, 45, 16, 1, 72, 19, 36, 48, 61 |
     20, 92, 8, 4, 65, 13, 42, 76, 15, 89, 14, 98, 79, 30, 49, 44, 2, 50, 19, 38 |
     53, 21, 81, 18, 66, 53, 90, 45, 79, 43, 23, 48, 41, 25, 70, 54, 45, 6, 90, 16 |
     39, 72, 75, 63, 1, 50, 87, 9, 94, 64, 84, 76, 34, 97, 16, 47, 14, 74, 10, 56 |
     88, 17, 53, 95, 67, 79, 1, 55, 24, 7, 11, 94, 43, 76, 36, 46, 48, 29, 33, 77 |
     65, 94, 40, 45, 43, 81, 87, 90, 13, 98, 89, 34, 85, 94, 8, 25, 61, 34, 55, 62 |
     50, 39, 66, 65, 43, 95, 31, 99, 65, 28, 7, 91, 40, 30, 83, 80, 93, 56, 68, 42 |
     95, 68, 35, 87, 52, 76, 70, 4, 13, 94, 15, 15, 3, 94, 81, 45, 38, 46, 29, 87 |
     19, 56, 64, 5, 5, 1, 19, 81, 2, 34, 48, 59, 89, 18, 25, 34, 82, 14, 24, 76 |
     66, 53, 90, 6, 78, 7, 76, 94, 76, 43, 81, 81, 38, 68, 47, 65, 11, 47, 14, 44 |
     88, 42, 88, 3, 57, 41, 50, 27, 41, 19, 73, 91, 71, 39, 88, 57, 96, 34, 23, 69 |
     11, 43, 18, 12, 34, 90, 85, 87, 79, 70, 89, 1, 92, 6, 8, 89, 91, 24, 91, 10 |
     42, 78, 48, 20, 11, 77, 71, 14, 40, 47, 70, 49, 59, 5, 11, 19, 88, 5, 32, 88 |
     14, 16, 58, 43, 11, 42, 3, 13, 94, 4, 29, 44, 62, 88, 21, 99, 77, 83, 24, 63 |
     1, 35, 31, 80, 84, 38, 50, 91, 24, 34, 5, 27, 79, 83, 69, 70, 18, 72, 61, 38 |
     53, 43, 87, 42, 7, 84, 72, 77, 40, 70, 66, 71, 38, 75, 39, 33, 61, 50, 29, 82 |
     2, 39, 25, 22, 40, 93, 21, 51, 71, 95, 90, 82, 20, 79, 46, 91, 25, 79, 74, 69 |
     65, 11, 2, 45, 81, 24, 17, 96, 68, 78, 57, 79, 91, 95, 70, 24, 83, 55, 52, 23 |
     32, 25, 43, 66, 13, 99, 82, 37, 53, 30, 38, 5, 69, 69, 4, 3, 27, 2, 81, 96 |
     31, 85, 96, 56, 82, 37, 23, 39, 39, 54, 13, 47, 32, 67, 36, 95, 87, 48, 45, 79 |
     86, 11, 88, 55, 53, 67, 37, 65, 57, 28, 94, 96, 92, 99, 60, 7, 29, 96, 44, 86 |
     27, 83, 42, 81, 13, 76, 37, 25, 68, 95, 87, 84, 46, 31, 94, 27, 9, 55, 76, 63 |
     40, 2, 97, 29, 90, 94, 7, 54, 53, 60, 45, 79, 14, 67, 70, 99, 36, 64, 44, 80 |
     58, 28, 17, 69, 13, 15, 63, 14, 64, 20, 36, 85, 10, 30, 4, 27, 61, 86, 68, 18 |
     5, 74, 4, 32, 84, 32, 24, 64, 10, 17, 65, 98, 56, 38, 7, 79, 70, 30, 40, 35 |
     19, 53, 11, 38, 9, 7, 45, 33, 41, 36, 41, 10, 86, 55, 39, 1, 89, 95, 11, 64 |
     72, 63, 37, 15, 56, 96, 30, 11, 9, 66, 45, 22, 2, 89, 42, 4, 17, 74, 51, 16 |
     91, 24, 60, 59, 34, 27, 73, 83, 80, 94, 47, 22, 87, 27, 66, 75, 29, 54, 98, 71 |
     28, 27, 15, 11, 37, 55, 82, 50, 30, 43, 99, 23, 19, 37, 6, 66, 19, 76, 5, 38 |
     75, 8, 16, 86, 7, 79, 21, 5, 56, 56, 24, 36, 91, 13, 98, 68, 22, 38, 71, 13 |
     37, 48, 94, 52, 17, 26, 98, 34, 37, 38, 87, 4, 39, 95, 35, 51, 83, 57, 99, 57 |
     16, 14, 82, 70, 6, 59, 60, 76, 63, 23, 90, 11, 83, 36, 60, 20, 63, 90, 33, 91 |
     65, 20, 26, 12, 49, 88, 3, 51, 71, 98, 29, 69, 44, 79, 88, 70, 11, 8, 69, 88 |
     20, 32, 30, 4, 70, 22, 47, 77, 48, 58, 35, 16, 73, 44, 2, 69, 24, 91, 77, 60 |
     72, 46, 65, 5, 59, 79, 47, 32, 34, 81, 11, 20, 8, 63, 76, 78, 70, 45, 60, 63 |];

mc = [| 1, 19, 14, 20, 2, 8, 10, 16, 4, 6, 3, 17, 11, 9, 15, 7, 13, 12, 18, 5 |
      2, 16, 9, 20, 7, 1, 18, 15, 3, 6, 10, 11, 19, 8, 5, 14, 12, 13, 4, 17 |
      1, 3, 11, 19, 9, 14, 6, 5, 12, 17, 20, 2, 8, 18, 15, 13, 10, 7, 4, 16 |
      8, 13, 16, 9, 20, 6, 15, 19, 10, 2, 14, 1, 3, 18, 5, 11, 7, 17, 12, 4 |
      11, 19, 4, 7, 1, 5, 2, 13, 18, 9, 14, 16, 3, 17, 15, 12, 8, 10, 20, 6 |
      18, 11, 3, 12, 4, 9, 16, 19, 8, 6, 1, 14, 5, 13, 20, 17, 2, 10, 7, 15 |
      20, 1, 10, 2, 18, 3, 7, 4, 17, 19, 6, 9, 12, 5, 15, 16, 13, 8, 11, 14 |
      5, 12, 7, 11, 6, 15, 2, 4, 1, 20, 19, 16, 13, 18, 8, 3, 10, 14, 17, 9 |
      3, 18, 2, 16, 5, 4, 6, 14, 10, 1, 12, 8, 9, 15, 20, 17, 11, 7, 19, 13 |
      7, 1, 19, 13, 4, 9, 10, 5, 16, 15, 11, 2, 14, 3, 18, 17, 6, 8, 12, 20 |
      14, 1, 13, 10, 17, 19, 11, 18, 16, 20, 3, 8, 2, 7, 12, 15, 6, 9, 5, 4 |
      17, 7, 4, 6, 12, 1, 3, 19, 5, 18, 8, 15, 20, 13, 9, 10, 14, 2, 11, 16 |
      18, 15, 5, 2, 6, 14, 20, 10, 9, 12, 13, 8, 1, 19, 17, 16, 11, 7, 3, 4 |
      13, 20, 16, 12, 15, 14, 9, 6, 1, 4, 11, 2, 19, 3, 7, 10, 17, 5, 8, 18 |
      2, 8, 20, 13, 3, 4, 19, 9, 12, 7, 17, 10, 14, 15, 16, 18, 11, 5, 6, 1 |
      1, 9, 19, 7, 3, 6, 14, 8, 20, 10, 5, 2, 16, 15, 18, 13, 17, 12, 11, 4 |
      9, 15, 16, 13, 8, 4, 19, 7, 3, 6, 14, 1, 20, 5, 10, 12, 18, 2, 11, 17 |
      3, 20, 12, 10, 7, 14, 2, 1, 17, 19, 8, 4, 18, 16, 9, 11, 13, 15, 5, 6 |
      20, 3, 12, 11, 19, 4, 15, 6, 10, 7, 13, 1, 8, 2, 14, 17, 18, 9, 5, 16 |
      3, 17, 12, 13, 10, 8, 4, 11, 6, 1, 9, 2, 14, 7, 5, 19, 18, 16, 15, 20 |
      18, 14, 2, 10, 7, 8, 6, 13, 16, 20, 1, 4, 19, 5, 15, 9, 12, 11, 17, 3 |
      1, 2, 11, 13, 6, 16, 20, 5, 14, 17, 9, 4, 12, 3, 19, 7, 8, 15, 10, 18 |
      20, 10, 2, 3, 16, 13, 12, 9, 1, 5, 6, 17, 15, 14, 11, 19, 7, 8, 4, 18 |
      8, 3, 10, 2, 7, 13, 6, 19, 20, 1, 14, 11, 12, 4, 16, 17, 15, 5, 18, 9 |
      18, 17, 3, 16, 5, 15, 1, 4, 19, 2, 6, 20, 13, 9, 12, 8, 10, 7, 11, 14 |
      6, 16, 1, 19, 9, 14, 3, 10, 5, 4, 2, 17, 18, 11, 13, 15, 20, 12, 7, 8 |
      15, 20, 12, 6, 7, 14, 19, 1, 8, 11, 13, 9, 18, 16, 17, 3, 4, 10, 5, 2 |
      2, 17, 1, 5, 18, 10, 6, 19, 14, 13, 4, 9, 7, 8, 16, 15, 20, 3, 12, 11 |
      9, 6, 17, 14, 15, 11, 3, 2, 19, 4, 10, 1, 13, 18, 20, 5, 12, 7, 8, 16 |
      18, 7, 20, 17, 2, 15, 8, 11, 4, 5, 14, 10, 9, 3, 13, 16, 12, 6, 1, 19 |
      5, 18, 1, 15, 3, 16, 10, 8, 19, 7, 6, 11, 12, 17, 2, 9, 13, 14, 4, 20 |
      18, 13, 4, 20, 14, 17, 9, 12, 15, 16, 11, 19, 8, 6, 5, 10, 1, 7, 2, 3 |
      19, 20, 11, 1, 9, 14, 15, 18, 2, 13, 3, 7, 12, 16, 5, 6, 10, 17, 8, 4 |
      20, 2, 7, 12, 8, 10, 14, 6, 9, 18, 1, 11, 19, 15, 16, 17, 3, 5, 13, 4 |
      19, 13, 3, 9, 5, 15, 6, 14, 11, 10, 2, 18, 4, 20, 17, 1, 7, 16, 8, 12 |
      1, 16, 17, 19, 13, 15, 5, 12, 4, 18, 9, 6, 10, 3, 2, 7, 20, 11, 14, 8 |
      16, 5, 13, 14, 18, 10, 1, 17, 3, 9, 8, 11, 15, 7, 6, 19, 4, 2, 20, 12 |
      9, 15, 8, 17, 1, 3, 7, 12, 18, 10, 2, 16, 11, 20, 5, 19, 13, 6, 14, 4 |
      11, 7, 14, 20, 8, 2, 17, 1, 15, 3, 6, 5, 13, 19, 10, 12, 9, 18, 4, 16 |
      12, 2, 6, 18, 3, 5, 19, 8, 4, 20, 14, 15, 13, 9, 17, 16, 11, 10, 7, 1 |
      18, 15, 10, 20, 8, 2, 12, 16, 14, 6, 13, 11, 9, 4, 3, 19, 5, 17, 1, 7 |
      6, 8, 16, 14, 19, 7, 2, 1, 12, 13, 10, 20, 18, 5, 15, 9, 11, 17, 3, 4 |
      12, 13, 11, 9, 8, 10, 1, 16, 14, 20, 17, 4, 6, 3, 7, 2, 5, 19, 15, 18 |
      17, 11, 18, 15, 5, 12, 13, 2, 20, 1, 7, 8, 6, 14, 9, 3, 4, 10, 19, 16 |
      19, 15, 2, 7, 12, 10, 1, 9, 18, 5, 17, 20, 14, 13, 8, 11, 3, 4, 6, 16 |
      18, 11, 19, 20, 8, 16, 17, 15, 13, 1, 14, 4, 7, 6, 2, 10, 9, 12, 3, 5 |
      7, 12, 16, 8, 19, 9, 5, 15, 6, 4, 1, 11, 13, 10, 17, 18, 20, 14, 3, 2 |
      19, 10, 20, 3, 4, 18, 15, 7, 5, 9, 1, 12, 11, 6, 17, 8, 2, 14, 13, 16 |
      7, 5, 6, 9, 14, 1, 3, 10, 16, 8, 13, 12, 19, 17, 4, 15, 20, 2, 18, 11 |
      16, 4, 3, 6, 13, 7, 15, 17, 14, 18, 5, 11, 10, 9, 8, 2, 20, 1, 19, 12 |];
