n = 30;
m = 15;

d = [| 75, 27, 41, 10, 3, 12, 39, 76, 94, 39, 88, 31, 10, 37, 99 |
     69, 79, 63, 33, 79, 36, 63, 98, 64, 37, 76, 5, 19, 26, 11 |
     34, 44, 65, 75, 1, 61, 93, 54, 85, 16, 96, 37, 25, 87, 99 |
     29, 69, 15, 41, 72, 23, 67, 18, 98, 25, 38, 96, 55, 48, 61 |
     56, 28, 19, 57, 22, 20, 65, 50, 28, 63, 10, 17, 1, 92, 5 |
     77, 64, 12, 70, 1, 69, 58, 82, 28, 36, 12, 5, 6, 58, 67 |
     86, 83, 58, 83, 45, 36, 22, 4, 19, 29, 86, 34, 7, 58, 42 |
     59, 81, 5, 66, 22, 81, 57, 75, 37, 93, 44, 76, 95, 71, 34 |
     25, 18, 58, 46, 16, 67, 31, 40, 72, 33, 84, 19, 8, 64, 95 |
     33, 20, 62, 88, 90, 77, 9, 62, 53, 18, 33, 93, 45, 65, 24 |
     13, 12, 33, 4, 74, 64, 64, 98, 24, 15, 82, 16, 14, 87, 95 |
     10, 70, 94, 80, 75, 50, 73, 39, 20, 14, 60, 62, 32, 7, 81 |
     97, 44, 19, 29, 7, 3, 4, 93, 72, 9, 46, 79, 2, 62, 81 |
     29, 87, 25, 28, 31, 48, 87, 58, 27, 94, 92, 73, 18, 21, 28 |
     2, 23, 95, 76, 26, 89, 81, 80, 97, 14, 27, 78, 79, 89, 73 |
     67, 33, 82, 30, 51, 56, 12, 12, 99, 56, 64, 51, 37, 7, 16 |
     21, 73, 13, 62, 31, 52, 68, 90, 35, 21, 69, 15, 41, 73, 73 |
     23, 18, 49, 37, 73, 13, 63, 22, 99, 76, 88, 44, 95, 55, 29 |
     93, 56, 82, 40, 80, 42, 74, 66, 11, 33, 65, 13, 20, 41, 12 |
     91, 28, 18, 26, 37, 89, 94, 41, 85, 44, 3, 34, 70, 16, 3 |
     10, 86, 80, 96, 79, 19, 90, 71, 12, 68, 11, 80, 64, 19, 17 |
     2, 24, 87, 11, 9, 1, 75, 22, 16, 16, 8, 54, 58, 6, 3 |
     7, 97, 74, 34, 88, 93, 42, 10, 65, 4, 94, 36, 73, 22, 17 |
     15, 28, 86, 14, 23, 17, 27, 99, 52, 98, 45, 79, 79, 79, 60 |
     77, 40, 35, 76, 60, 49, 99, 4, 57, 84, 90, 2, 34, 55, 33 |
     11, 44, 56, 96, 61, 83, 90, 14, 12, 38, 98, 37, 68, 47, 85 |
     79, 75, 6, 73, 37, 1, 6, 62, 1, 13, 25, 12, 92, 73, 56 |
     74, 9, 77, 79, 93, 33, 63, 78, 50, 57, 17, 5, 58, 15, 16 |
     7, 40, 64, 19, 89, 4, 45, 96, 22, 76, 24, 31, 89, 38, 13 |
     79, 14, 92, 64, 22, 48, 51, 27, 45, 14, 28, 35, 11, 94, 65 |];

mc = [| 1, 9, 7, 14, 3, 6, 12, 10, 8, 11, 4, 5, 13, 2, 15 |
      8, 4, 14, 3, 10, 5, 13, 9, 7, 6, 15, 2, 1, 12, 11 |
      4, 1, 12, 5, 10, 14, 9, 8, 2, 13, 7, 15, 6, 3, 11 |
      10, 12, 2, 1, 6, 15, 14, 11, 13, 4, 5, 9, 7, 3, 8 |
      6, 11, 15, 7, 14, 4, 9, 12, 8, 3, 1, 2, 13, 10, 5 |
      4, 7, 6, 12, 2, 9, 10, 3, 5, 14, 1, 15, 8, 13, 11 |
      8, 1, 14, 9, 4, 12, 10, 15, 13, 6, 3, 5, 2, 7, 11 |
      12, 9, 13, 14, 6, 10, 7, 8, 1, 3, 15, 4, 5, 11, 2 |
      14, 4, 7, 6, 3, 10, 12, 11, 15, 8, 1, 13, 5, 9, 2 |
      1, 7, 3, 10, 13, 8, 2, 9, 6, 11, 15, 5, 14, 4, 12 |
      2, 6, 14, 15, 4, 3, 13, 11, 9, 7, 12, 1, 5, 8, 10 |
      9, 12, 1, 10, 11, 15, 7, 13, 6, 3, 2, 4, 5, 14, 8 |
      10, 1, 2, 11, 6, 5, 13, 14, 9, 4, 7, 8, 12, 15, 3 |
      12, 10, 4, 7, 14, 13, 9, 1, 8, 5, 15, 3, 6, 2, 11 |
      9, 2, 15, 4, 3, 11, 7, 10, 6, 13, 14, 8, 1, 5, 12 |
      9, 5, 11, 10, 15, 12, 6, 14, 4, 8, 13, 3, 1, 2, 7 |
      4, 1, 2, 8, 9, 14, 7, 3, 11, 12, 10, 15, 6, 13, 5 |
      4, 13, 9, 8, 15, 2, 6, 1, 11, 3, 14, 10, 7, 12, 5 |
      13, 14, 9, 4, 15, 3, 6, 11, 10, 5, 7, 2, 8, 12, 1 |
      3, 9, 13, 7, 8, 15, 6, 4, 14, 12, 2, 10, 5, 1, 11 |
      14, 7, 5, 10, 1, 13, 11, 8, 3, 2, 12, 4, 9, 15, 6 |
      8, 7, 2, 10, 4, 11, 14, 12, 9, 1, 5, 13, 15, 3, 6 |
      13, 15, 10, 9, 14, 3, 1, 4, 5, 11, 2, 8, 6, 7, 12 |
      12, 11, 5, 9, 10, 4, 13, 3, 15, 6, 2, 7, 1, 14, 8 |
      12, 7, 4, 11, 8, 1, 14, 9, 2, 10, 3, 15, 5, 13, 6 |
      15, 5, 14, 9, 6, 7, 8, 13, 3, 4, 10, 2, 12, 1, 11 |
      7, 1, 13, 9, 6, 2, 3, 11, 14, 4, 5, 15, 10, 8, 12 |
      14, 8, 9, 10, 12, 3, 6, 2, 13, 4, 1, 5, 15, 11, 7 |
      4, 14, 8, 1, 7, 12, 5, 11, 15, 2, 13, 6, 10, 3, 9 |
      4, 1, 8, 9, 15, 13, 5, 3, 10, 7, 12, 11, 2, 14, 6 |];
