n = 10;
m = 10;

d = [| 82, 42, 58, 65, 55, 49, 1, 70, 7, 26 |
     12, 9, 6, 47, 54, 59, 94, 52, 31, 49 |
     51, 7, 82, 28, 60, 16, 2, 6, 77, 19 |
     75, 47, 7, 5, 8, 92, 2, 96, 18, 1 |
     78, 90, 80, 21, 68, 56, 98, 21, 98, 30 |
     21, 82, 77, 83, 52, 53, 97, 22, 32, 82 |
     42, 26, 59, 59, 25, 60, 33, 98, 54, 63 |
     95, 71, 20, 37, 53, 65, 10, 80, 30, 44 |
     97, 39, 83, 50, 17, 69, 51, 65, 54, 81 |
     3, 2, 42, 41, 94, 13, 47, 43, 16, 51 |];

mc = [| 2, 7, 5, 4, 3, 10, 8, 9, 1, 6 |
      3, 2, 7, 4, 10, 6, 5, 9, 8, 1 |
      4, 5, 6, 8, 2, 3, 10, 7, 9, 1 |
      7, 6, 5, 3, 10, 2, 9, 8, 4, 1 |
      5, 10, 3, 1, 4, 7, 2, 9, 6, 8 |
      4, 6, 8, 5, 9, 1, 7, 3, 10, 2 |
      3, 4, 10, 7, 6, 9, 1, 2, 8, 5 |
      9, 10, 8, 2, 7, 1, 6, 5, 4, 3 |
      3, 9, 4, 5, 10, 8, 7, 2, 1, 6 |
      5, 6, 9, 7, 3, 10, 1, 2, 4, 8 |];
