n = 50;
m = 15;

d = [| 50, 14, 57, 41, 74, 51, 22, 41, 67, 18, 99, 25, 73, 4, 50 |
     12, 99, 18, 39, 64, 94, 93, 21, 49, 26, 27, 87, 98, 82, 35 |
     38, 78, 7, 9, 72, 93, 17, 60, 38, 60, 26, 29, 92, 22, 57 |
     66, 8, 63, 93, 90, 62, 98, 19, 8, 53, 49, 84, 89, 54, 31 |
     69, 11, 26, 69, 61, 39, 92, 87, 78, 63, 98, 23, 2, 13, 55 |
     13, 50, 45, 53, 66, 15, 58, 73, 85, 42, 21, 46, 39, 77, 95 |
     86, 36, 28, 47, 87, 59, 65, 28, 37, 73, 11, 20, 94, 54, 80 |
     52, 56, 52, 57, 51, 53, 47, 75, 54, 74, 98, 82, 14, 4, 14 |
     2, 20, 64, 45, 75, 44, 55, 90, 38, 50, 54, 50, 27, 50, 69 |
     89, 15, 70, 92, 90, 39, 68, 97, 38, 2, 73, 73, 67, 16, 31 |
     42, 1, 73, 3, 7, 90, 79, 75, 62, 43, 81, 68, 88, 73, 22 |
     58, 67, 84, 51, 12, 78, 12, 15, 98, 27, 64, 39, 80, 73, 4 |
     76, 8, 24, 30, 46, 8, 5, 87, 76, 3, 85, 35, 26, 22, 13 |
     68, 85, 39, 27, 10, 10, 36, 63, 98, 59, 66, 24, 61, 74, 51 |
     50, 83, 65, 7, 71, 95, 84, 78, 21, 35, 70, 37, 41, 20, 98 |
     55, 51, 91, 29, 38, 7, 13, 55, 41, 79, 55, 23, 10, 85, 42 |
     96, 22, 85, 56, 92, 24, 57, 6, 56, 53, 69, 35, 87, 16, 24 |
     66, 2, 88, 18, 51, 60, 71, 27, 39, 2, 62, 69, 25, 97, 67 |
     76, 45, 47, 2, 68, 69, 83, 43, 53, 40, 83, 95, 28, 94, 65 |
     8, 77, 4, 86, 85, 52, 17, 98, 31, 50, 35, 74, 43, 80, 20 |
     34, 91, 98, 35, 32, 22, 56, 51, 60, 8, 87, 85, 27, 67, 88 |
     1, 97, 80, 79, 14, 66, 44, 15, 20, 46, 44, 65, 13, 65, 5 |
     40, 40, 98, 59, 24, 11, 7, 68, 94, 76, 99, 32, 15, 28, 65 |
     33, 38, 78, 90, 91, 41, 52, 88, 91, 32, 53, 19, 33, 6, 4 |
     47, 66, 24, 73, 40, 74, 24, 32, 79, 94, 43, 75, 9, 74, 11 |
     66, 49, 31, 38, 82, 48, 21, 40, 16, 1, 29, 34, 82, 76, 45 |
     74, 52, 32, 16, 18, 10, 7, 47, 75, 21, 38, 46, 26, 16, 74 |
     44, 54, 96, 62, 65, 54, 31, 81, 22, 59, 60, 28, 42, 39, 78 |
     86, 12, 63, 26, 36, 91, 18, 20, 72, 43, 20, 83, 49, 28, 56 |
     76, 46, 25, 56, 60, 62, 17, 7, 66, 14, 21, 37, 96, 15, 32 |
     1, 93, 31, 14, 16, 52, 58, 15, 56, 52, 15, 51, 27, 64, 3 |
     93, 60, 5, 35, 51, 58, 81, 5, 63, 14, 50, 27, 84, 54, 23 |
     13, 6, 7, 49, 64, 25, 60, 19, 10, 31, 17, 44, 13, 26, 45 |
     29, 19, 7, 35, 86, 24, 25, 4, 37, 99, 56, 26, 41, 84, 48 |
     23, 13, 60, 55, 6, 4, 32, 17, 65, 12, 72, 5, 16, 74, 53 |
     44, 65, 83, 1, 26, 63, 47, 22, 60, 27, 17, 30, 34, 37, 42 |
     41, 7, 56, 39, 49, 1, 11, 1, 16, 48, 16, 16, 23, 67, 91 |
     88, 31, 15, 27, 94, 79, 75, 23, 20, 27, 12, 76, 60, 39, 58 |
     15, 78, 35, 9, 72, 31, 25, 99, 6, 58, 80, 44, 73, 51, 58 |
     54, 26, 62, 13, 73, 83, 53, 10, 6, 77, 4, 74, 10, 77, 98 |
     87, 99, 78, 41, 71, 89, 69, 74, 55, 10, 62, 45, 6, 48, 91 |
     60, 37, 26, 40, 71, 99, 79, 68, 14, 75, 41, 18, 12, 73, 17 |
     85, 59, 18, 76, 32, 58, 17, 36, 39, 69, 2, 14, 62, 32, 27 |
     80, 76, 25, 16, 85, 31, 35, 90, 10, 58, 29, 33, 29, 46, 42 |
     95, 53, 80, 34, 26, 31, 53, 22, 53, 29, 94, 42, 48, 38, 50 |
     75, 11, 85, 3, 67, 85, 96, 60, 25, 39, 54, 80, 81, 51, 80 |
     63, 36, 63, 13, 58, 52, 17, 12, 98, 12, 71, 29, 64, 98, 34 |
     18, 7, 28, 41, 61, 1, 86, 21, 60, 20, 46, 35, 69, 2, 53 |
     25, 39, 4, 43, 86, 58, 27, 75, 9, 85, 89, 53, 55, 30, 26 |
     63, 43, 60, 21, 24, 48, 67, 91, 54, 70, 53, 85, 32, 94, 42 |];

mc = [| 4, 13, 10, 3, 14, 12, 11, 1, 9, 15, 6, 2, 5, 7, 8 |
      9, 7, 15, 12, 2, 5, 11, 8, 1, 14, 13, 10, 3, 6, 4 |
      9, 8, 7, 4, 10, 14, 15, 1, 12, 6, 11, 13, 3, 5, 2 |
      13, 12, 2, 5, 10, 14, 15, 6, 3, 1, 9, 8, 7, 11, 4 |
      14, 7, 8, 11, 4, 9, 3, 10, 12, 15, 6, 13, 5, 1, 2 |
      3, 4, 10, 2, 11, 14, 6, 7, 1, 13, 5, 12, 8, 9, 15 |
      12, 5, 3, 9, 13, 15, 14, 10, 11, 2, 6, 8, 7, 1, 4 |
      8, 3, 11, 2, 14, 13, 12, 6, 7, 5, 10, 15, 4, 1, 9 |
      13, 4, 15, 14, 2, 1, 5, 11, 10, 7, 3, 6, 9, 12, 8 |
      14, 9, 13, 4, 7, 1, 2, 15, 6, 5, 10, 11, 12, 3, 8 |
      6, 13, 14, 2, 1, 15, 9, 5, 10, 8, 7, 3, 11, 12, 4 |
      6, 14, 1, 7, 15, 10, 2, 11, 3, 5, 13, 9, 12, 4, 8 |
      10, 6, 9, 5, 15, 14, 3, 7, 11, 8, 12, 1, 13, 2, 4 |
      11, 2, 6, 1, 5, 13, 15, 14, 9, 10, 8, 3, 7, 12, 4 |
      5, 14, 6, 12, 9, 8, 4, 2, 10, 3, 1, 15, 11, 7, 13 |
      9, 4, 2, 10, 12, 6, 7, 8, 15, 14, 13, 1, 11, 5, 3 |
      13, 8, 9, 3, 10, 11, 4, 2, 12, 1, 5, 14, 15, 7, 6 |
      11, 10, 15, 14, 6, 5, 2, 8, 4, 12, 7, 13, 1, 3, 9 |
      10, 9, 12, 14, 5, 6, 2, 15, 11, 4, 1, 3, 7, 8, 13 |
      5, 4, 9, 11, 15, 3, 12, 8, 10, 7, 6, 2, 13, 14, 1 |
      9, 7, 10, 11, 2, 5, 14, 15, 6, 8, 13, 12, 4, 1, 3 |
      8, 2, 7, 3, 13, 14, 1, 10, 15, 5, 6, 9, 11, 12, 4 |
      15, 7, 6, 10, 4, 2, 11, 14, 8, 3, 9, 1, 13, 5, 12 |
      9, 8, 10, 13, 14, 15, 12, 1, 6, 4, 3, 2, 5, 7, 11 |
      5, 7, 9, 1, 15, 3, 11, 12, 13, 10, 14, 4, 8, 2, 6 |
      9, 15, 8, 14, 4, 13, 5, 2, 12, 7, 6, 10, 11, 1, 3 |
      14, 11, 3, 12, 8, 9, 1, 13, 4, 6, 7, 10, 2, 5, 15 |
      7, 9, 6, 8, 14, 11, 4, 10, 3, 5, 15, 13, 1, 12, 2 |
      7, 4, 11, 3, 1, 5, 6, 8, 9, 14, 2, 10, 12, 13, 15 |
      10, 6, 2, 3, 1, 7, 11, 14, 12, 4, 8, 15, 13, 5, 9 |
      13, 12, 8, 9, 15, 1, 14, 10, 4, 5, 2, 6, 3, 7, 11 |
      9, 2, 1, 5, 10, 13, 6, 4, 8, 11, 3, 15, 7, 14, 12 |
      1, 9, 14, 8, 6, 2, 3, 7, 5, 10, 13, 12, 4, 15, 11 |
      7, 5, 1, 12, 2, 4, 6, 10, 3, 9, 8, 11, 14, 15, 13 |
      4, 2, 3, 9, 10, 1, 13, 12, 5, 8, 7, 6, 15, 14, 11 |
      8, 12, 13, 1, 9, 11, 10, 4, 15, 3, 6, 14, 5, 2, 7 |
      7, 14, 6, 2, 4, 13, 5, 3, 1, 10, 11, 12, 9, 8, 15 |
      3, 13, 4, 2, 12, 1, 9, 10, 15, 6, 5, 7, 14, 8, 11 |
      15, 3, 9, 14, 12, 10, 1, 7, 13, 8, 6, 11, 2, 5, 4 |
      7, 1, 10, 6, 13, 14, 15, 5, 4, 2, 11, 3, 9, 12, 8 |
      11, 3, 9, 10, 7, 4, 1, 15, 2, 8, 12, 13, 14, 6, 5 |
      3, 2, 12, 15, 13, 4, 7, 10, 9, 5, 11, 14, 6, 8, 1 |
      7, 12, 3, 8, 14, 13, 5, 4, 15, 11, 1, 6, 10, 2, 9 |
      4, 9, 14, 5, 1, 11, 2, 10, 8, 12, 3, 13, 15, 7, 6 |
      2, 13, 8, 3, 15, 7, 11, 6, 4, 12, 9, 5, 14, 10, 1 |
      15, 13, 3, 12, 8, 10, 4, 9, 2, 5, 1, 6, 14, 7, 11 |
      2, 7, 5, 11, 1, 3, 10, 9, 15, 12, 4, 14, 13, 6, 8 |
      10, 12, 8, 3, 4, 11, 13, 9, 7, 15, 14, 5, 2, 1, 6 |
      3, 12, 1, 10, 5, 7, 8, 4, 2, 6, 11, 9, 13, 15, 14 |
      14, 13, 15, 5, 4, 10, 2, 11, 12, 1, 9, 6, 8, 7, 3 |];
