n = 15;
m = 8;

d = [| 41, 71, 98, 5, 62, 67, 49, 96 |
     65, 89, 4, 51, 90, 76, 67, 39 |
     57, 98, 50, 25, 80, 21, 29, 71 |
     30, 67, 60, 76, 92, 11, 15, 13 |
     82, 54, 65, 68, 6, 8, 59, 97 |
     72, 81, 65, 98, 79, 19, 69, 36 |
     54, 22, 33, 13, 83, 83, 94, 6 |
     60, 4, 66, 78, 3, 63, 73, 69 |
     18, 68, 72, 21, 99, 6, 20, 69 |
     94, 92, 11, 7, 39, 84, 19, 24 |
     51, 69, 88, 54, 15, 39, 84, 61 |
     66, 40, 87, 97, 74, 98, 12, 62 |
     35, 50, 13, 86, 34, 33, 82, 90 |
     11, 51, 93, 76, 94, 39, 79, 14 |
     71, 74, 84, 92, 40, 47, 85, 68 |];

mc = [| 7, 8, 5, 4, 1, 6, 3, 2 |
      1, 2, 6, 4, 3, 8, 7, 5 |
      3, 4, 8, 5, 7, 2, 1, 6 |
      7, 8, 6, 4, 3, 1, 2, 5 |
      7, 3, 1, 8, 5, 6, 4, 2 |
      5, 3, 8, 2, 6, 1, 7, 4 |
      2, 1, 3, 5, 4, 6, 7, 8 |
      8, 1, 3, 4, 6, 5, 7, 2 |
      2, 3, 1, 4, 5, 6, 7, 8 |
      1, 5, 8, 2, 3, 7, 4, 6 |
      3, 2, 6, 8, 1, 7, 4, 5 |
      6, 2, 8, 3, 4, 7, 5, 1 |
      4, 8, 6, 5, 1, 3, 2, 7 |
      8, 6, 4, 1, 7, 5, 2, 3 |
      7, 1, 3, 2, 6, 5, 8, 4 |];
