n = 15;
m = 8;

d = [| 86, 88, 23, 25, 99, 81, 26, 65 |
     71, 58, 46, 48, 32, 40, 25, 15 |
     23, 2, 78, 75, 11, 68, 67, 7 |
     83, 8, 36, 45, 3, 62, 73, 23 |
     16, 10, 50, 87, 12, 38, 43, 52 |
     79, 70, 34, 6, 5, 13, 89, 81 |
     17, 21, 98, 91, 88, 5, 32, 78 |
     41, 71, 77, 96, 24, 87, 23, 49 |
     91, 40, 38, 88, 50, 22, 52, 12 |
     69, 26, 68, 86, 82, 67, 9, 58 |
     14, 52, 51, 42, 58, 62, 36, 70 |
     7, 23, 58, 22, 26, 26, 18, 33 |
     94, 75, 81, 61, 59, 93, 85, 46 |
     6, 9, 63, 79, 48, 25, 36, 67 |
     14, 91, 54, 61, 5, 22, 6, 90 |];

mc = [| 5, 7, 4, 8, 2, 6, 1, 3 |
      3, 1, 2, 8, 5, 6, 7, 4 |
      1, 3, 7, 8, 6, 4, 2, 5 |
      4, 2, 3, 7, 6, 8, 5, 1 |
      2, 1, 5, 4, 8, 6, 7, 3 |
      8, 7, 5, 6, 3, 4, 1, 2 |
      3, 8, 2, 7, 1, 5, 4, 6 |
      8, 7, 3, 4, 6, 2, 1, 5 |
      7, 8, 6, 5, 2, 1, 4, 3 |
      2, 5, 3, 8, 4, 1, 7, 6 |
      6, 4, 2, 5, 1, 7, 8, 3 |
      7, 8, 4, 3, 1, 2, 6, 5 |
      1, 6, 8, 7, 2, 4, 5, 3 |
      8, 7, 4, 5, 3, 1, 6, 2 |
      7, 3, 4, 1, 2, 8, 5, 6 |];
