n = 50;
m = 15;

d = [| 17, 70, 53, 48, 90, 72, 13, 35, 53, 45, 15, 19, 54, 33, 87 |
     26, 71, 95, 52, 38, 17, 92, 35, 35, 27, 88, 94, 22, 69, 51 |
     68, 21, 76, 92, 58, 27, 50, 86, 15, 58, 95, 92, 5, 91, 13 |
     89, 18, 1, 54, 14, 16, 14, 81, 45, 21, 58, 40, 56, 47, 11 |
     93, 1, 46, 37, 49, 9, 4, 50, 75, 45, 70, 81, 30, 29, 19 |
     70, 83, 25, 90, 25, 81, 27, 94, 54, 77, 15, 25, 80, 33, 83 |
     97, 55, 9, 92, 55, 67, 96, 87, 1, 76, 21, 87, 87, 27, 29 |
     9, 21, 65, 95, 10, 94, 85, 79, 22, 43, 6, 76, 91, 3, 22 |
     88, 11, 60, 61, 32, 57, 96, 48, 31, 31, 87, 99, 11, 74, 76 |
     64, 24, 66, 83, 92, 54, 81, 91, 25, 28, 96, 42, 9, 74, 75 |
     39, 91, 60, 7, 41, 18, 58, 86, 33, 59, 76, 35, 99, 79, 64 |
     82, 29, 57, 10, 28, 9, 36, 86, 24, 82, 96, 40, 46, 45, 47 |
     42, 62, 56, 55, 67, 43, 15, 4, 91, 53, 25, 51, 16, 97, 62 |
     36, 41, 30, 12, 84, 43, 78, 89, 29, 48, 48, 76, 6, 30, 85 |
     80, 97, 28, 3, 24, 34, 14, 54, 65, 55, 50, 23, 17, 1, 73 |
     48, 32, 18, 32, 7, 15, 13, 31, 62, 68, 97, 64, 96, 31, 58 |
     9, 27, 55, 83, 17, 60, 99, 48, 31, 44, 93, 9, 71, 1, 3 |
     53, 53, 41, 56, 76, 36, 83, 84, 36, 30, 53, 86, 65, 23, 44 |
     81, 49, 64, 91, 28, 56, 16, 85, 40, 23, 58, 76, 21, 83, 34 |
     55, 80, 47, 72, 8, 94, 68, 61, 66, 61, 3, 27, 81, 61, 1 |
     39, 53, 84, 91, 33, 60, 61, 58, 81, 74, 96, 63, 33, 76, 80 |
     39, 36, 66, 33, 67, 44, 25, 56, 83, 11, 67, 37, 25, 55, 6 |
     32, 3, 5, 40, 4, 22, 53, 36, 2, 47, 49, 87, 49, 45, 49 |
     51, 44, 81, 80, 15, 3, 28, 85, 83, 54, 57, 1, 97, 92, 99 |
     88, 30, 83, 30, 61, 11, 43, 82, 71, 17, 73, 38, 2, 9, 56 |
     91, 25, 73, 17, 21, 62, 96, 56, 15, 32, 83, 83, 16, 16, 60 |
     67, 2, 92, 22, 45, 45, 32, 9, 4, 10, 66, 49, 70, 77, 29 |
     1, 17, 84, 84, 66, 10, 44, 23, 98, 30, 61, 80, 16, 75, 88 |
     53, 90, 68, 91, 99, 15, 13, 55, 87, 16, 37, 57, 53, 69, 5 |
     17, 52, 99, 1, 89, 73, 66, 88, 55, 46, 96, 66, 43, 41, 85 |
     3, 47, 94, 91, 93, 17, 72, 76, 75, 35, 83, 2, 67, 66, 12 |
     10, 83, 61, 76, 47, 36, 97, 44, 86, 99, 58, 84, 69, 95, 29 |
     73, 69, 89, 15, 68, 30, 5, 74, 24, 24, 73, 15, 34, 83, 29 |
     24, 78, 61, 31, 22, 47, 22, 90, 88, 3, 21, 2, 48, 60, 93 |
     96, 46, 76, 62, 4, 6, 24, 20, 3, 50, 76, 89, 47, 56, 64 |
     79, 84, 75, 27, 62, 25, 72, 49, 79, 23, 42, 70, 73, 98, 36 |
     19, 62, 30, 61, 9, 61, 98, 93, 70, 82, 47, 94, 61, 81, 93 |
     46, 93, 79, 54, 86, 12, 33, 83, 48, 56, 65, 74, 69, 69, 25 |
     7, 42, 15, 55, 30, 92, 70, 8, 92, 11, 78, 39, 1, 7, 33 |
     58, 9, 63, 70, 89, 27, 56, 72, 41, 11, 14, 76, 62, 77, 26 |
     55, 95, 20, 58, 62, 27, 81, 26, 62, 57, 67, 8, 34, 54, 81 |
     31, 61, 21, 88, 35, 89, 24, 50, 32, 60, 63, 61, 59, 18, 44 |
     84, 76, 6, 20, 53, 68, 26, 11, 14, 49, 37, 86, 6, 12, 97 |
     48, 92, 38, 3, 5, 18, 95, 15, 32, 97, 49, 66, 54, 53, 99 |
     94, 25, 77, 95, 38, 30, 68, 44, 79, 76, 39, 56, 80, 52, 10 |
     22, 23, 17, 65, 29, 78, 24, 68, 72, 77, 14, 75, 34, 74, 71 |
     18, 18, 56, 65, 12, 82, 47, 43, 40, 58, 95, 80, 39, 15, 8 |
     12, 5, 18, 15, 71, 59, 93, 38, 69, 34, 60, 85, 26, 91, 95 |
     30, 8, 3, 47, 96, 81, 28, 34, 91, 25, 68, 8, 80, 29, 84 |
     15, 64, 33, 42, 72, 69, 11, 14, 71, 71, 49, 59, 39, 97, 70 |];

mc = [| 2, 10, 7, 9, 15, 13, 12, 11, 3, 6, 1, 8, 4, 5, 14 |
      12, 3, 9, 14, 2, 1, 15, 5, 7, 11, 8, 4, 13, 10, 6 |
      1, 3, 8, 10, 4, 7, 14, 12, 2, 11, 5, 13, 15, 9, 6 |
      4, 13, 6, 11, 3, 12, 1, 9, 10, 8, 14, 5, 7, 2, 15 |
      15, 11, 8, 5, 3, 7, 9, 10, 1, 2, 4, 13, 12, 6, 14 |
      8, 5, 7, 4, 13, 15, 2, 12, 10, 14, 3, 1, 9, 6, 11 |
      13, 14, 1, 12, 15, 3, 9, 11, 7, 8, 5, 6, 10, 2, 4 |
      9, 10, 11, 1, 3, 6, 8, 12, 15, 7, 2, 13, 5, 14, 4 |
      1, 9, 14, 12, 2, 4, 8, 5, 3, 10, 13, 6, 7, 15, 11 |
      1, 3, 6, 8, 7, 4, 2, 5, 13, 12, 10, 14, 11, 9, 15 |
      14, 11, 4, 10, 2, 12, 6, 15, 9, 7, 3, 1, 13, 5, 8 |
      7, 9, 10, 5, 11, 13, 1, 4, 14, 15, 2, 6, 3, 8, 12 |
      11, 1, 9, 14, 13, 6, 4, 8, 15, 7, 5, 3, 12, 2, 10 |
      11, 5, 1, 12, 15, 7, 10, 6, 13, 9, 2, 4, 8, 14, 3 |
      12, 11, 15, 2, 8, 10, 7, 6, 4, 9, 13, 14, 5, 3, 1 |
      3, 8, 10, 7, 5, 12, 9, 6, 2, 15, 14, 13, 4, 1, 11 |
      4, 3, 5, 6, 15, 14, 12, 13, 1, 7, 2, 11, 8, 10, 9 |
      14, 1, 9, 6, 12, 2, 4, 7, 5, 8, 15, 3, 13, 10, 11 |
      7, 14, 13, 9, 12, 15, 4, 5, 1, 11, 6, 8, 2, 10, 3 |
      15, 7, 8, 1, 3, 4, 14, 13, 6, 12, 2, 10, 9, 5, 11 |
      13, 12, 2, 10, 4, 9, 14, 15, 5, 7, 11, 1, 6, 8, 3 |
      7, 8, 2, 6, 12, 3, 10, 14, 13, 9, 11, 1, 5, 15, 4 |
      1, 9, 8, 4, 15, 13, 3, 14, 2, 7, 10, 6, 11, 5, 12 |
      14, 11, 10, 6, 8, 5, 9, 7, 1, 12, 2, 13, 4, 15, 3 |
      8, 14, 11, 9, 4, 6, 7, 15, 3, 5, 2, 10, 12, 1, 13 |
      7, 6, 14, 3, 15, 8, 11, 1, 2, 10, 13, 5, 12, 4, 9 |
      2, 7, 8, 3, 11, 10, 15, 1, 9, 14, 5, 4, 6, 12, 13 |
      8, 9, 4, 5, 14, 11, 2, 7, 1, 15, 12, 3, 13, 6, 10 |
      8, 13, 11, 9, 5, 12, 4, 6, 1, 14, 15, 2, 3, 10, 7 |
      5, 3, 12, 4, 7, 2, 15, 9, 8, 6, 11, 1, 13, 14, 10 |
      3, 10, 15, 9, 7, 2, 8, 1, 12, 11, 6, 4, 5, 14, 13 |
      4, 11, 1, 14, 2, 12, 10, 9, 3, 15, 7, 5, 6, 8, 13 |
      14, 5, 10, 15, 11, 8, 6, 4, 3, 9, 13, 12, 2, 1, 7 |
      11, 8, 4, 6, 10, 2, 7, 5, 9, 1, 13, 14, 12, 15, 3 |
      14, 15, 12, 9, 7, 11, 4, 10, 8, 13, 3, 1, 5, 2, 6 |
      13, 12, 10, 8, 9, 15, 2, 11, 14, 5, 7, 6, 4, 3, 1 |
      11, 12, 2, 8, 5, 6, 1, 13, 3, 9, 10, 4, 7, 15, 14 |
      11, 5, 1, 12, 2, 9, 6, 3, 8, 10, 7, 15, 14, 4, 13 |
      13, 7, 3, 14, 2, 4, 1, 8, 9, 6, 12, 10, 15, 5, 11 |
      8, 2, 3, 13, 5, 7, 10, 6, 11, 1, 4, 15, 12, 14, 9 |
      10, 8, 9, 7, 1, 12, 3, 2, 4, 15, 11, 5, 13, 14, 6 |
      15, 11, 6, 1, 12, 3, 2, 4, 14, 10, 8, 13, 7, 5, 9 |
      10, 9, 11, 2, 8, 3, 14, 4, 6, 5, 1, 7, 12, 13, 15 |
      11, 2, 4, 15, 6, 8, 7, 13, 12, 1, 14, 9, 10, 3, 5 |
      14, 8, 12, 10, 1, 15, 6, 7, 2, 5, 4, 9, 13, 11, 3 |
      11, 2, 15, 13, 1, 7, 5, 14, 3, 10, 6, 12, 8, 4, 9 |
      11, 4, 12, 13, 8, 3, 15, 6, 10, 1, 2, 9, 5, 7, 14 |
      9, 4, 3, 14, 1, 13, 11, 2, 8, 6, 7, 5, 12, 15, 10 |
      13, 9, 1, 6, 3, 7, 4, 14, 2, 10, 5, 12, 15, 11, 8 |
      1, 7, 3, 9, 15, 14, 10, 11, 8, 5, 6, 2, 4, 12, 13 |];
