n = 20;
m = 15;

d = [| 7, 16, 27, 3, 36, 62, 29, 21, 56, 92, 70, 34, 21, 59, 70 |
     16, 73, 10, 58, 42, 80, 73, 76, 86, 71, 43, 19, 86, 86, 2 |
     51, 54, 72, 89, 2, 13, 65, 39, 5, 41, 62, 84, 68, 38, 63 |
     25, 8, 40, 79, 69, 64, 58, 11, 66, 46, 66, 37, 45, 32, 85 |
     96, 74, 33, 25, 63, 64, 22, 95, 52, 77, 82, 8, 1, 22, 80 |
     67, 74, 75, 22, 87, 55, 32, 85, 72, 50, 2, 18, 57, 28, 18 |
     88, 52, 22, 7, 94, 25, 44, 23, 10, 42, 68, 73, 13, 49, 43 |
     44, 33, 98, 18, 80, 53, 77, 91, 25, 16, 58, 48, 92, 69, 75 |
     96, 53, 19, 81, 24, 10, 77, 17, 42, 38, 30, 11, 68, 15, 49 |
     31, 13, 74, 75, 72, 87, 54, 23, 58, 78, 73, 90, 95, 46, 58 |
     57, 37, 33, 3, 1, 73, 82, 58, 49, 36, 80, 55, 8, 6, 46 |
     74, 98, 13, 31, 64, 25, 66, 94, 58, 79, 38, 33, 51, 63, 23 |
     13, 22, 95, 22, 61, 56, 59, 34, 69, 17, 56, 18, 11, 29, 74 |
     13, 25, 70, 54, 21, 14, 25, 45, 78, 8, 28, 29, 50, 81, 11 |
     42, 82, 5, 67, 91, 75, 66, 84, 12, 69, 97, 74, 74, 17, 75 |
     19, 27, 78, 71, 70, 81, 52, 49, 64, 96, 34, 72, 79, 46, 72 |
     49, 69, 29, 51, 61, 66, 14, 83, 5, 48, 26, 28, 41, 18, 91 |
     46, 64, 17, 46, 19, 25, 70, 3, 13, 78, 62, 98, 19, 60, 68 |
     9, 54, 59, 89, 9, 51, 85, 57, 37, 24, 99, 9, 58, 9, 48 |
     2, 10, 83, 13, 28, 39, 58, 61, 95, 96, 10, 96, 70, 24, 7 |];

mc = [| 2, 12, 9, 8, 11, 5, 14, 10, 1, 4, 15, 6, 13, 3, 7 |
      7, 1, 8, 12, 4, 6, 3, 13, 15, 14, 5, 10, 2, 11, 9 |
      3, 1, 5, 10, 13, 7, 9, 4, 12, 2, 6, 14, 15, 11, 8 |
      12, 4, 10, 9, 13, 6, 11, 15, 14, 3, 8, 1, 7, 5, 2 |
      3, 11, 12, 2, 7, 1, 5, 9, 15, 10, 8, 14, 13, 6, 4 |
      15, 8, 10, 12, 2, 7, 5, 6, 13, 3, 11, 4, 9, 14, 1 |
      5, 1, 13, 9, 6, 4, 15, 14, 8, 10, 2, 11, 12, 7, 3 |
      12, 15, 14, 4, 13, 8, 11, 7, 2, 10, 5, 6, 9, 1, 3 |
      6, 15, 12, 4, 9, 1, 7, 13, 11, 8, 14, 3, 2, 5, 10 |
      6, 13, 8, 3, 2, 11, 9, 10, 5, 4, 7, 15, 12, 14, 1 |
      7, 2, 5, 6, 10, 3, 1, 11, 14, 13, 9, 4, 15, 12, 8 |
      4, 11, 1, 12, 15, 7, 6, 5, 10, 2, 14, 9, 3, 13, 8 |
      7, 10, 3, 12, 2, 8, 6, 11, 15, 5, 14, 9, 4, 13, 1 |
      12, 2, 14, 7, 3, 10, 6, 8, 9, 11, 1, 13, 15, 5, 4 |
      9, 5, 6, 12, 2, 4, 11, 13, 15, 8, 3, 7, 10, 14, 1 |
      9, 15, 12, 3, 2, 11, 7, 10, 6, 13, 8, 5, 4, 14, 1 |
      14, 12, 9, 5, 8, 4, 11, 3, 6, 2, 15, 1, 10, 7, 13 |
      10, 15, 3, 9, 7, 13, 4, 14, 5, 6, 11, 12, 8, 1, 2 |
      8, 11, 5, 13, 7, 4, 9, 14, 3, 2, 1, 15, 6, 10, 12 |
      4, 8, 10, 1, 6, 7, 15, 9, 11, 13, 12, 14, 3, 5, 2 |];
