n = 15;
m = 8;

d = [| 14, 34, 73, 26, 92, 47, 7, 70 |
     30, 34, 37, 34, 89, 20, 87, 92 |
     82, 65, 10, 98, 7, 51, 75, 70 |
     55, 51, 73, 14, 4, 58, 80, 63 |
     83, 92, 54, 58, 30, 98, 49, 53 |
     59, 97, 42, 7, 49, 95, 22, 49 |
     66, 71, 18, 15, 27, 37, 92, 89 |
     32, 61, 58, 40, 69, 4, 61, 69 |
     63, 24, 3, 14, 10, 46, 3, 43 |
     93, 23, 54, 43, 27, 49, 53, 92 |
     11, 96, 61, 58, 49, 43, 82, 13 |
     95, 26, 38, 13, 92, 76, 18, 6 |
     7, 7, 64, 15, 86, 18, 14, 5 |
     5, 14, 39, 76, 55, 97, 88, 42 |
     71, 30, 21, 41, 57, 31, 76, 67 |];

mc = [| 3, 6, 2, 4, 8, 7, 5, 1 |
      6, 3, 5, 1, 8, 2, 4, 7 |
      8, 4, 2, 1, 7, 5, 3, 6 |
      7, 1, 5, 8, 3, 4, 2, 6 |
      3, 1, 8, 7, 2, 5, 4, 6 |
      6, 4, 5, 8, 1, 7, 2, 3 |
      5, 3, 2, 8, 6, 4, 7, 1 |
      2, 3, 7, 4, 1, 6, 8, 5 |
      7, 1, 5, 6, 4, 8, 2, 3 |
      8, 1, 7, 3, 5, 2, 6, 4 |
      8, 5, 7, 3, 2, 6, 4, 1 |
      8, 1, 4, 2, 3, 7, 6, 5 |
      1, 6, 2, 5, 3, 8, 7, 4 |
      1, 5, 2, 7, 3, 8, 6, 4 |
      3, 6, 4, 8, 5, 7, 2, 1 |];
