n = 15;
m = 8;

d = [| 37, 75, 93, 37, 51, 81, 82, 20 |
     98, 25, 94, 54, 54, 2, 94, 78 |
     3, 86, 36, 1, 54, 1, 20, 1 |
     11, 94, 48, 81, 49, 95, 82, 59 |
     75, 66, 46, 49, 29, 96, 61, 54 |
     98, 77, 22, 12, 82, 58, 50, 78 |
     30, 64, 78, 78, 35, 70, 88, 74 |
     76, 47, 34, 61, 74, 16, 67, 25 |
     16, 45, 32, 19, 88, 34, 90, 33 |
     6, 60, 59, 37, 50, 82, 26, 52 |
     63, 92, 62, 17, 96, 73, 34, 64 |
     65, 44, 52, 61, 13, 77, 61, 40 |
     80, 76, 83, 53, 35, 37, 3, 2 |
     19, 93, 84, 22, 17, 74, 10, 31 |
     28, 22, 59, 49, 73, 76, 87, 46 |];

mc = [| 4, 5, 8, 1, 6, 2, 7, 3 |
      5, 3, 2, 4, 8, 7, 6, 1 |
      1, 2, 5, 8, 7, 4, 6, 3 |
      4, 8, 3, 7, 5, 1, 6, 2 |
      3, 6, 1, 7, 2, 8, 5, 4 |
      5, 6, 7, 3, 8, 2, 1, 4 |
      5, 7, 8, 1, 2, 3, 6, 4 |
      7, 3, 8, 2, 6, 4, 5, 1 |
      1, 3, 7, 5, 4, 6, 8, 2 |
      6, 1, 8, 5, 3, 2, 4, 7 |
      8, 6, 3, 2, 4, 1, 7, 5 |
      8, 5, 3, 4, 6, 1, 2, 7 |
      2, 1, 6, 4, 7, 5, 8, 3 |
      1, 3, 5, 4, 2, 7, 6, 8 |
      5, 1, 2, 7, 6, 4, 8, 3 |];
