n = 15;
m = 15;

d = [| 79, 53, 19, 1, 75, 68, 27, 9, 73, 16, 48, 97, 44, 39, 78 |
     76, 33, 98, 48, 14, 88, 86, 28, 32, 66, 48, 64, 89, 24, 21 |
     25, 94, 16, 42, 87, 12, 66, 10, 2, 20, 37, 15, 61, 9, 53 |
     3, 41, 57, 82, 62, 38, 30, 76, 68, 70, 78, 52, 32, 29, 68 |
     94, 31, 37, 88, 11, 64, 16, 11, 89, 86, 57, 10, 93, 7, 59 |
     20, 76, 58, 61, 44, 22, 32, 62, 26, 73, 20, 6, 3, 94, 65 |
     25, 47, 71, 71, 45, 1, 29, 80, 91, 55, 46, 70, 44, 19, 11 |
     15, 18, 1, 81, 97, 75, 21, 71, 20, 87, 93, 34, 92, 89, 96 |
     43, 31, 25, 80, 13, 24, 38, 49, 41, 37, 18, 54, 81, 74, 68 |
     33, 98, 92, 71, 84, 86, 91, 80, 22, 26, 1, 71, 43, 93, 62 |
     23, 16, 33, 28, 88, 31, 8, 82, 68, 10, 15, 81, 96, 51, 64 |
     9, 65, 15, 80, 86, 58, 68, 40, 84, 79, 69, 97, 5, 10, 80 |
     67, 93, 49, 19, 1, 76, 38, 66, 49, 61, 74, 83, 62, 49, 78 |
     80, 2, 86, 71, 42, 66, 90, 35, 32, 20, 93, 90, 72, 30, 55 |
     55, 52, 97, 35, 83, 89, 96, 54, 56, 51, 49, 26, 84, 17, 47 |];

mc = [| 4, 10, 12, 11, 9, 5, 2, 14, 7, 8, 6, 3, 1, 13, 15 |
      5, 9, 14, 3, 10, 7, 6, 8, 13, 2, 11, 1, 12, 15, 4 |
      14, 4, 12, 6, 8, 5, 13, 2, 11, 3, 9, 7, 15, 10, 1 |
      8, 2, 13, 15, 3, 7, 12, 9, 6, 14, 10, 5, 4, 1, 11 |
      14, 7, 4, 11, 5, 13, 3, 6, 15, 12, 8, 1, 9, 2, 10 |
      3, 15, 5, 4, 10, 8, 2, 12, 11, 6, 13, 1, 7, 14, 9 |
      4, 3, 12, 13, 9, 6, 1, 10, 5, 14, 7, 8, 11, 15, 2 |
      4, 3, 6, 10, 9, 5, 15, 13, 1, 11, 14, 2, 12, 7, 8 |
      14, 5, 15, 9, 7, 12, 4, 1, 10, 2, 8, 13, 11, 6, 3 |
      13, 2, 12, 15, 1, 4, 10, 8, 9, 6, 14, 11, 7, 3, 5 |
      6, 4, 13, 3, 1, 2, 9, 7, 15, 12, 10, 11, 14, 5, 8 |
      12, 8, 3, 13, 10, 15, 9, 5, 6, 1, 2, 11, 4, 7, 14 |
      6, 2, 11, 10, 15, 3, 12, 13, 7, 9, 5, 8, 4, 1, 14 |
      7, 14, 4, 1, 11, 9, 8, 12, 3, 6, 13, 15, 2, 5, 10 |
      7, 12, 5, 10, 4, 6, 1, 15, 13, 9, 11, 14, 8, 2, 3 |];
