n = 15;
m = 15;

d = [| 9, 65, 74, 27, 72, 72, 41, 92, 52, 33, 90, 81, 3, 51, 27 |
     38, 42, 73, 77, 52, 67, 19, 80, 39, 39, 60, 51, 9, 69, 80 |
     39, 47, 77, 26, 19, 11, 18, 21, 68, 99, 48, 10, 25, 14, 94 |
     28, 60, 75, 99, 59, 19, 21, 21, 5, 83, 99, 37, 21, 5, 37 |
     1, 72, 98, 38, 11, 68, 67, 36, 67, 46, 70, 26, 28, 1, 76 |
     22, 54, 83, 59, 97, 43, 61, 54, 66, 82, 43, 77, 68, 98, 58 |
     19, 28, 15, 40, 74, 9, 81, 97, 71, 27, 30, 46, 98, 72, 10 |
     93, 28, 77, 51, 91, 81, 55, 7, 48, 4, 91, 81, 83, 66, 45 |
     66, 78, 19, 85, 95, 35, 56, 19, 70, 69, 63, 59, 73, 40, 8 |
     27, 4, 30, 4, 80, 93, 77, 40, 65, 82, 93, 95, 22, 15, 56 |
     91, 86, 49, 13, 87, 24, 61, 72, 11, 35, 53, 25, 77, 21, 94 |
     74, 17, 17, 9, 92, 47, 80, 97, 68, 69, 76, 27, 21, 79, 46 |
     46, 38, 88, 68, 16, 10, 99, 77, 19, 63, 43, 73, 21, 34, 45 |
     39, 12, 14, 76, 71, 12, 55, 71, 90, 44, 34, 95, 50, 48, 78 |
     18, 41, 40, 50, 36, 38, 46, 43, 11, 41, 68, 88, 75, 78, 51 |];

mc = [| 12, 5, 7, 6, 9, 14, 13, 11, 4, 1, 3, 15, 8, 10, 2 |
      3, 2, 8, 6, 15, 10, 4, 12, 14, 13, 1, 5, 9, 7, 11 |
      8, 7, 9, 5, 14, 13, 4, 15, 11, 3, 10, 2, 1, 6, 12 |
      3, 1, 8, 7, 10, 14, 13, 2, 6, 4, 12, 9, 5, 15, 11 |
      7, 4, 12, 5, 9, 3, 1, 15, 10, 14, 11, 2, 6, 13, 8 |
      3, 1, 11, 14, 6, 13, 7, 4, 15, 5, 9, 8, 10, 2, 12 |
      3, 8, 15, 14, 12, 5, 4, 13, 1, 6, 9, 11, 7, 2, 10 |
      1, 11, 3, 12, 4, 7, 10, 15, 13, 2, 9, 14, 8, 6, 5 |
      7, 14, 11, 5, 10, 8, 2, 6, 12, 15, 3, 1, 9, 4, 13 |
      9, 5, 7, 8, 15, 10, 12, 3, 14, 6, 1, 2, 13, 11, 4 |
      7, 6, 9, 12, 14, 5, 1, 8, 10, 13, 2, 15, 4, 11, 3 |
      4, 5, 15, 7, 2, 6, 12, 11, 9, 13, 1, 3, 8, 14, 10 |
      15, 11, 3, 1, 14, 2, 8, 7, 10, 12, 9, 5, 13, 6, 4 |
      10, 13, 2, 4, 7, 15, 5, 14, 11, 1, 3, 6, 12, 9, 8 |
      7, 4, 5, 10, 1, 2, 13, 11, 15, 14, 8, 6, 9, 12, 3 |];
