n = 50;
m = 20;

d = [| 5, 50, 88, 22, 25, 95, 55, 81, 1, 2, 15, 74, 13, 62, 20, 95, 67, 47, 88, 83 |
     78, 76, 4, 61, 14, 84, 37, 56, 28, 9, 45, 87, 91, 79, 74, 76, 69, 99, 46, 27 |
     20, 44, 40, 56, 87, 56, 73, 4, 38, 91, 66, 60, 40, 57, 61, 74, 83, 41, 17, 8 |
     49, 56, 41, 82, 84, 2, 3, 2, 21, 73, 30, 29, 46, 54, 21, 62, 54, 19, 52, 72 |
     77, 30, 57, 92, 75, 35, 72, 90, 92, 85, 52, 19, 54, 10, 38, 9, 22, 44, 62, 36 |
     40, 48, 58, 32, 11, 18, 95, 95, 96, 58, 68, 65, 71, 57, 77, 18, 28, 5, 99, 28 |
     8, 20, 24, 66, 78, 79, 43, 87, 21, 6, 80, 5, 73, 35, 84, 8, 2, 98, 27, 42 |
     7, 23, 62, 56, 37, 92, 37, 94, 72, 65, 76, 22, 97, 2, 57, 35, 16, 63, 54, 24 |
     79, 44, 54, 91, 19, 84, 66, 89, 35, 68, 98, 47, 71, 25, 24, 14, 73, 20, 39, 58 |
     78, 17, 6, 78, 29, 13, 9, 43, 87, 78, 79, 45, 20, 60, 19, 46, 70, 23, 51, 24 |
     41, 61, 28, 50, 16, 76, 8, 11, 62, 33, 93, 80, 24, 90, 67, 92, 47, 35, 48, 89 |
     87, 84, 94, 84, 62, 60, 57, 3, 18, 78, 6, 45, 67, 77, 33, 65, 58, 58, 46, 24 |
     41, 56, 77, 56, 95, 91, 31, 72, 80, 88, 80, 22, 64, 93, 49, 74, 80, 78, 21, 63 |
     86, 82, 77, 47, 4, 4, 86, 65, 38, 62, 91, 26, 41, 62, 82, 41, 38, 10, 38, 98 |
     42, 8, 93, 72, 71, 43, 27, 47, 10, 11, 4, 89, 7, 97, 52, 65, 6, 15, 30, 75 |
     85, 82, 52, 3, 73, 18, 90, 57, 68, 72, 83, 9, 90, 89, 71, 9, 67, 47, 61, 3 |
     96, 42, 34, 67, 11, 24, 72, 87, 25, 64, 18, 35, 92, 71, 37, 9, 19, 8, 12, 13 |
     17, 4, 6, 10, 7, 48, 59, 10, 13, 75, 70, 44, 8, 18, 52, 52, 58, 92, 74, 51 |
     75, 3, 81, 76, 16, 76, 75, 87, 53, 5, 11, 28, 34, 60, 69, 49, 48, 15, 35, 81 |
     90, 25, 44, 35, 28, 65, 84, 32, 64, 34, 10, 5, 96, 9, 30, 76, 23, 83, 78, 38 |
     38, 30, 31, 41, 96, 85, 38, 6, 37, 26, 59, 51, 89, 33, 13, 66, 26, 25, 75, 3 |
     49, 67, 83, 14, 65, 68, 52, 83, 95, 22, 5, 93, 11, 34, 83, 32, 26, 33, 38, 57 |
     52, 8, 39, 97, 27, 8, 21, 71, 53, 56, 79, 6, 61, 68, 24, 35, 8, 31, 87, 35 |
     14, 93, 55, 71, 18, 54, 39, 45, 75, 34, 83, 82, 47, 79, 75, 88, 69, 35, 16, 88 |
     54, 87, 66, 55, 37, 44, 11, 9, 10, 54, 5, 48, 57, 4, 66, 16, 41, 73, 66, 19 |
     32, 9, 38, 71, 77, 58, 36, 11, 24, 70, 33, 41, 99, 35, 73, 76, 79, 64, 72, 87 |
     93, 21, 36, 65, 90, 68, 93, 83, 38, 98, 96, 37, 91, 4, 98, 32, 57, 29, 65, 6 |
     36, 19, 88, 70, 70, 34, 4, 15, 3, 62, 15, 93, 29, 53, 57, 58, 72, 98, 83, 87 |
     60, 55, 75, 43, 91, 75, 33, 27, 9, 89, 28, 24, 12, 49, 23, 90, 15, 38, 14, 46 |
     42, 67, 48, 42, 95, 84, 17, 37, 33, 34, 80, 55, 68, 16, 46, 80, 85, 94, 60, 77 |
     61, 76, 14, 89, 85, 93, 15, 95, 14, 28, 58, 93, 79, 64, 15, 15, 60, 77, 16, 32 |
     90, 15, 89, 93, 81, 6, 33, 52, 22, 66, 30, 29, 52, 40, 75, 57, 40, 94, 91, 48 |
     93, 51, 33, 7, 43, 65, 68, 89, 91, 56, 7, 68, 99, 84, 51, 56, 11, 21, 64, 81 |
     45, 42, 79, 15, 83, 70, 79, 72, 92, 57, 52, 68, 30, 33, 39, 37, 29, 5, 50, 97 |
     22, 63, 59, 74, 93, 71, 84, 11, 66, 23, 53, 39, 23, 46, 99, 34, 88, 1, 33, 85 |
     81, 19, 69, 57, 78, 43, 15, 88, 27, 67, 3, 91, 55, 20, 88, 31, 7, 19, 99, 66 |
     77, 17, 22, 95, 9, 9, 20, 40, 60, 47, 32, 19, 50, 75, 40, 52, 29, 43, 52, 74 |
     24, 70, 52, 85, 49, 26, 76, 51, 29, 57, 7, 5, 10, 76, 75, 76, 8, 46, 67, 40 |
     1, 52, 95, 40, 70, 94, 77, 17, 24, 99, 37, 84, 97, 80, 22, 53, 50, 45, 12, 50 |
     19, 77, 9, 34, 22, 65, 84, 30, 13, 10, 35, 78, 80, 94, 33, 21, 71, 51, 47, 24 |
     72, 75, 56, 98, 25, 30, 64, 34, 23, 91, 87, 97, 95, 94, 16, 2, 53, 99, 8, 16 |
     91, 81, 69, 45, 98, 13, 55, 47, 77, 85, 62, 62, 3, 58, 22, 96, 96, 66, 1, 56 |
     59, 32, 76, 5, 25, 89, 44, 33, 35, 11, 83, 29, 9, 72, 82, 77, 75, 63, 81, 13 |
     41, 39, 82, 49, 23, 76, 16, 52, 43, 75, 6, 66, 17, 27, 59, 63, 57, 55, 44, 86 |
     74, 28, 76, 81, 47, 1, 13, 5, 6, 8, 74, 91, 74, 71, 40, 26, 77, 81, 29, 29 |
     83, 83, 30, 60, 31, 61, 10, 69, 1, 90, 63, 40, 14, 43, 56, 71, 11, 50, 51, 74 |
     82, 96, 32, 67, 85, 63, 62, 48, 83, 64, 29, 93, 83, 5, 80, 7, 89, 83, 25, 7 |
     74, 45, 21, 67, 90, 80, 43, 80, 62, 74, 3, 28, 8, 25, 5, 42, 88, 17, 52, 40 |
     76, 32, 43, 11, 61, 44, 73, 14, 28, 87, 59, 9, 72, 19, 26, 69, 99, 38, 23, 61 |
     40, 80, 20, 75, 37, 45, 82, 58, 91, 66, 76, 96, 37, 50, 45, 2, 81, 7, 82, 22 |];

mc = [| 1, 20, 7, 6, 14, 2, 11, 9, 4, 15, 10, 3, 8, 12, 5, 13, 17, 19, 18, 16 |
      19, 14, 3, 2, 13, 15, 18, 8, 5, 4, 9, 7, 6, 10, 17, 16, 1, 12, 20, 11 |
      2, 7, 5, 3, 11, 20, 13, 15, 14, 18, 4, 17, 1, 12, 19, 8, 16, 6, 9, 10 |
      4, 12, 15, 11, 19, 20, 14, 16, 3, 17, 9, 1, 10, 13, 18, 6, 2, 7, 5, 8 |
      1, 8, 9, 6, 13, 11, 20, 14, 17, 5, 19, 16, 2, 4, 15, 7, 3, 10, 12, 18 |
      14, 7, 4, 16, 5, 19, 15, 9, 10, 13, 2, 1, 20, 11, 17, 6, 8, 12, 3, 18 |
      17, 16, 5, 4, 11, 10, 14, 1, 6, 8, 15, 18, 12, 3, 19, 13, 9, 7, 20, 2 |
      13, 19, 2, 4, 10, 7, 18, 8, 20, 16, 17, 14, 15, 9, 3, 5, 6, 12, 11, 1 |
      17, 18, 19, 7, 2, 8, 12, 11, 10, 1, 15, 16, 14, 6, 13, 20, 9, 4, 3, 5 |
      13, 18, 5, 1, 14, 2, 8, 20, 16, 4, 9, 17, 6, 7, 10, 15, 12, 19, 3, 11 |
      8, 17, 14, 9, 19, 16, 20, 10, 18, 5, 7, 13, 11, 15, 3, 2, 1, 6, 4, 12 |
      5, 10, 7, 1, 12, 17, 16, 19, 20, 2, 8, 18, 14, 11, 13, 3, 15, 9, 6, 4 |
      4, 16, 5, 2, 11, 7, 1, 13, 17, 19, 14, 3, 8, 18, 12, 15, 20, 10, 6, 9 |
      5, 2, 4, 20, 8, 6, 13, 11, 16, 7, 9, 10, 14, 12, 19, 3, 18, 1, 17, 15 |
      2, 8, 16, 19, 15, 17, 12, 20, 18, 11, 13, 1, 4, 5, 6, 7, 10, 14, 3, 9 |
      3, 17, 10, 9, 18, 7, 1, 14, 12, 19, 15, 2, 5, 16, 20, 13, 11, 4, 8, 6 |
      7, 16, 3, 8, 11, 4, 5, 10, 18, 9, 6, 19, 17, 14, 13, 1, 15, 12, 20, 2 |
      2, 17, 14, 8, 20, 19, 1, 4, 7, 6, 11, 13, 18, 9, 12, 10, 16, 15, 5, 3 |
      18, 15, 10, 3, 16, 14, 12, 5, 9, 17, 6, 7, 11, 4, 2, 19, 8, 13, 1, 20 |
      3, 17, 7, 13, 19, 16, 10, 11, 9, 14, 18, 2, 5, 20, 8, 15, 6, 12, 4, 1 |
      20, 4, 7, 10, 8, 9, 12, 18, 16, 15, 2, 14, 19, 11, 3, 13, 6, 1, 5, 17 |
      14, 1, 20, 6, 4, 11, 7, 18, 5, 13, 2, 3, 9, 15, 19, 16, 8, 17, 12, 10 |
      13, 7, 4, 1, 6, 17, 5, 15, 14, 9, 16, 18, 3, 8, 12, 19, 10, 20, 11, 2 |
      14, 16, 17, 6, 19, 13, 8, 7, 4, 10, 20, 11, 15, 5, 9, 18, 2, 1, 3, 12 |
      7, 14, 6, 15, 10, 16, 17, 9, 18, 8, 2, 11, 1, 5, 13, 19, 3, 12, 20, 4 |
      9, 2, 4, 12, 11, 5, 16, 1, 6, 19, 13, 7, 20, 15, 8, 3, 14, 17, 18, 10 |
      2, 19, 16, 7, 8, 6, 11, 13, 20, 14, 4, 9, 17, 10, 18, 1, 3, 15, 12, 5 |
      15, 6, 3, 4, 2, 1, 10, 12, 14, 7, 20, 13, 16, 17, 11, 9, 18, 19, 5, 8 |
      11, 17, 10, 20, 2, 14, 1, 13, 18, 15, 6, 4, 12, 3, 7, 8, 16, 5, 9, 19 |
      13, 10, 6, 7, 9, 3, 15, 17, 12, 11, 4, 16, 14, 8, 5, 18, 2, 19, 1, 20 |
      10, 17, 14, 5, 13, 7, 6, 8, 15, 11, 19, 1, 4, 20, 2, 3, 16, 18, 12, 9 |
      3, 7, 14, 1, 9, 12, 6, 8, 20, 11, 10, 16, 2, 4, 19, 15, 13, 18, 17, 5 |
      1, 18, 10, 9, 15, 11, 20, 4, 13, 2, 6, 12, 19, 16, 14, 7, 5, 17, 3, 8 |
      12, 4, 11, 13, 1, 6, 17, 19, 8, 3, 7, 2, 15, 9, 20, 5, 16, 18, 10, 14 |
      16, 8, 11, 9, 15, 7, 4, 20, 19, 1, 14, 5, 17, 18, 12, 3, 10, 6, 13, 2 |
      3, 1, 16, 10, 8, 14, 19, 11, 6, 18, 12, 7, 13, 5, 4, 9, 15, 17, 2, 20 |
      17, 2, 13, 11, 6, 20, 8, 15, 18, 9, 12, 1, 4, 3, 16, 14, 10, 19, 5, 7 |
      15, 7, 20, 5, 8, 10, 12, 4, 9, 3, 1, 13, 16, 14, 17, 18, 2, 11, 19, 6 |
      10, 11, 4, 16, 14, 9, 5, 13, 2, 1, 18, 15, 7, 17, 3, 6, 8, 20, 12, 19 |
      6, 13, 18, 1, 11, 10, 7, 14, 4, 20, 12, 17, 2, 8, 5, 3, 9, 16, 19, 15 |
      15, 6, 18, 19, 16, 1, 9, 5, 13, 7, 3, 12, 8, 2, 20, 4, 14, 17, 10, 11 |
      13, 2, 17, 19, 12, 10, 1, 20, 16, 4, 14, 3, 18, 7, 11, 9, 8, 15, 5, 6 |
      2, 7, 12, 17, 6, 16, 3, 10, 11, 8, 15, 19, 13, 20, 9, 1, 18, 14, 5, 4 |
      14, 1, 18, 5, 17, 15, 12, 16, 4, 8, 20, 19, 2, 6, 9, 7, 13, 10, 11, 3 |
      11, 12, 14, 9, 13, 6, 8, 18, 5, 15, 1, 16, 3, 19, 7, 17, 20, 4, 10, 2 |
      15, 10, 16, 6, 4, 17, 12, 11, 19, 20, 2, 7, 8, 18, 5, 9, 13, 14, 3, 1 |
      17, 18, 12, 2, 13, 6, 20, 15, 9, 1, 3, 7, 5, 8, 19, 14, 10, 16, 11, 4 |
      6, 7, 8, 19, 1, 10, 17, 12, 11, 5, 16, 9, 14, 20, 13, 2, 15, 18, 4, 3 |
      17, 7, 2, 4, 15, 8, 10, 20, 14, 6, 1, 13, 11, 5, 3, 16, 12, 19, 18, 9 |
      13, 15, 8, 14, 6, 12, 2, 11, 3, 4, 7, 1, 20, 18, 16, 19, 9, 17, 5, 10 |];
